 vasp.5.4.1 05Feb16 (build Dec 31 2016 05:41:53) complex

 executed on           IFC91_ompi date 2017.10.27  19:11:13

 INCAR:
 POTCAR:    PAW_PBE O 08Apr2002
 POTCAR:    PAW_PBE Sn_d 06Sep2000
 POTCAR:    PAW_PBE H 15Jun2001
 POTCAR:    PAW_PBE O 08Apr2002
   VRHFIN =O: s2p4

   TITEL  = PAW_PBE O 08Apr2002
   POMASS =   16.000; ZVAL   =    6.000    mass and valenz
   ENMAX  =  400.000; ENMIN  =  300.000 eV

 POTCAR:    PAW_PBE Sn_d 06Sep2000
   VRHFIN =Sn: s2p2

   TITEL  = PAW_PBE Sn_d 06Sep2000
   POMASS =  118.710; ZVAL   =   14.000    mass and valenz
   ENMAX  =  241.083; ENMIN  =  180.812 eV

 POTCAR:    PAW_PBE H 15Jun2001
   VRHFIN =H: ultrasoft test

   TITEL  = PAW_PBE H 15Jun2001
   POMASS =    1.000; ZVAL   =    1.000    mass and valenz
   ENMAX  =  250.000; ENMIN  =  200.000 eV

  PAW_PBE O 08Apr2002                   :
  PAW_PBE Sn_d 06Sep2000                :
  PAW_PBE H 15Jun2001                   :

 POSCAR: SnO2
  positions in direct lattice
  velocities in cartesian coordinates
 exchange correlation table for  LEXCH =        8
   RHO(1)=    0.500       N(1)  =     2000
   RHO(2)=  100.500       N(2)  =     4000

 ion  position               nearest neighbor table
   1  0.097  0.903  0.750-  39 2.04  35 2.04  47 2.04
   2  0.403  0.597  0.750-  39 2.04  32 2.04  46 2.04
   3  0.903  0.597  0.750-  33 2.04  37 2.04  42 2.04
   4  0.653  0.153  0.000-  45 2.04  44 2.04  40 2.04
   5  0.847  0.347  0.000-  42 2.04  40 2.04  44 2.04
   6  0.903  0.097  0.250-  44 2.04  35 2.04  47 2.04
   7  0.597  0.403  0.250-  44 2.04  32 2.04  46 2.04
   8  0.653  0.153  0.500-  41 2.04  40 2.04  44 2.04
   9  0.347  0.847  0.500-  41 2.04  39 2.04  43 2.04
  10  0.847  0.347  0.500-  37 2.04  40 2.04  44 2.04
  11  0.597  0.403  0.750-  40 2.04  32 2.04  46 2.04
  12  0.653  0.653  0.000-  46 2.04  36 2.04  33 2.04
  13  0.847  0.847  0.000-  47 2.04  36 2.04  33 2.04
  14  0.903  0.597  0.250-  36 2.04  37 2.04  42 2.04
  15  0.597  0.903  0.250-  36 2.04  41 2.04  45 2.04
  16  0.653  0.653  0.500-  32 2.04  33 2.04  36 2.04
  17  0.847  0.847  0.500-  35 2.04  33 2.04  36 2.04
  18  0.903  0.097  0.750-  40 2.04  35 2.04  47 2.04
  19  0.153  0.653  0.500-  37 2.04  39 2.04  43 2.04
  20  0.597  0.903  0.750-  33 2.04  41 2.04  45 2.04
  21  0.347  0.347  0.500-  32 2.04  34 2.04  38 2.04
  22  0.097  0.903  0.250-  43 2.04  35 2.04  47 2.04
  23  0.403  0.597  0.250-  43 2.04  32 2.04  46 2.04
  24  0.347  0.847  0.000-  45 2.04  43 2.04  39 2.04
  25  0.153  0.153  0.500-  35 2.04  34 2.04  38 2.04
  26  0.153  0.653  0.000-  42 2.04  39 2.04  43 2.04
  27  0.097  0.403  0.250-  34 2.04  37 2.04  42 2.04
  28  0.403  0.097  0.750-  38 2.04  41 2.04  45 2.04
  29  0.097  0.403  0.750-  38 2.04  37 2.04  42 2.04
  30  0.347  0.347  0.000-  46 2.04  38 2.04  34 2.04
  31  0.403  0.097  0.250-  34 2.04  41 2.04  45 2.04
  32  0.500  0.500  0.500-  16 2.04  21 2.04  11 2.04   2 2.04   7 2.04  23 2.04  46 3.15  46 3.15
                            36 3.69  38 3.69  39 3.69  40 3.69  43 3.69  44 3.69  33 3.69  34 3.69
  33  0.750  0.750  0.750-   3 2.04  20 2.04  13 2.04  16 2.04  17 2.04  12 2.04  36 3.15  36 3.15
                            32 3.69  37 3.69  41 3.69  42 3.69  45 3.69  46 3.69  47 3.69  35 3.69
  34  0.250  0.250  0.250-  27 2.04  31 2.04  21 2.04  30 2.04  25 2.04  48 2.04  38 3.15  38 3.15
                            32 3.69  41 3.69  42 3.69  45 3.69  46 3.69  47 3.69  35 3.69  37 3.69
  35  0.000  0.000  0.500-  17 2.04  25 2.04   1 2.04  18 2.04  22 2.04   6 2.04  47 3.15  47 3.15
                            36 3.69  38 3.69  39 3.69  40 3.69  43 3.69  44 3.69  33 3.69  34 3.69
  36  0.750  0.750  0.250-  14 2.04  15 2.04  12 2.04  13 2.04  16 2.04  17 2.04  33 3.15  33 3.15
                            35 3.69  37 3.69  41 3.69  42 3.69  45 3.69  46 3.69  47 3.69  32 3.69
  37  0.000  0.500  0.500-  10 2.04  19 2.04  14 2.04   3 2.04  27 2.04  29 2.04  42 3.15  42 3.15
                            36 3.69  38 3.69  39 3.69  40 3.69  33 3.69  43 3.69  44 3.69  34 3.69
  38  0.250  0.250  0.750-  28 2.04  29 2.04  21 2.04  25 2.04  30 2.04  48 2.04  34 3.15  34 3.15
                            37 3.69  41 3.69  42 3.69  45 3.69  46 3.69  47 3.69  32 3.69  35 3.69
  39  0.250  0.750  0.750-   1 2.04   2 2.04   9 2.04  19 2.04  24 2.04  26 2.04  43 3.15  43 3.15
                            37 3.69  41 3.69  42 3.69  32 3.69  45 3.69  46 3.69  47 3.69  35 3.69
  40  0.750  0.250  0.750-  11 2.04  18 2.04   8 2.04  10 2.04   4 2.04   5 2.04  44 3.15  44 3.15
                            37 3.69  41 3.69  42 3.69  32 3.69  45 3.69  46 3.69  47 3.69  35 3.69
  41  0.500  0.000  0.500-   8 2.04   9 2.04  15 2.04  20 2.04  28 2.04  31 2.04  45 3.15  45 3.15
                            36 3.69  38 3.69  39 3.69  40 3.69  43 3.69  44 3.69  33 3.69  34 3.69
  42  0.000  0.500  0.000-   5 2.04  26 2.04  14 2.04   3 2.04  27 2.04  29 2.04  37 3.15  37 3.15
                            36 3.69  33 3.69  38 3.69  39 3.69  40 3.69  43 3.69  44 3.69  34 3.69
  43  0.250  0.750  0.250-  22 2.04  23 2.04   9 2.04  19 2.04  24 2.04  26 2.04  39 3.15  39 3.15
                            37 3.69  32 3.69  41 3.69  42 3.69  45 3.69  46 3.69  47 3.69  35 3.69
  44  0.750  0.250  0.250-   6 2.04   7 2.04   4 2.04   5 2.04   8 2.04  10 2.04  40 3.15  40 3.15
                            37 3.69  32 3.69  41 3.69  42 3.69  45 3.69  46 3.69  47 3.69  35 3.69
  45  0.500  0.000  0.000-   4 2.04  24 2.04  20 2.04  15 2.04  28 2.04  31 2.04  41 3.15  41 3.15
                            36 3.69  38 3.69  39 3.69  40 3.69  33 3.69  43 3.69  44 3.69  34 3.69
  46  0.500  0.500  0.000-  12 2.04  30 2.04  11 2.04   2 2.04  23 2.04   7 2.04  32 3.15  32 3.15
                            34 3.69  36 3.69  38 3.69  39 3.69  40 3.69  43 3.69  44 3.69  33 3.69
  47  0.000  0.000  0.000-  13 2.04  48 2.04   1 2.04  18 2.04  22 2.04   6 2.04  35 3.15  35 3.15
                            36 3.69  38 3.69  39 3.69  40 3.69  43 3.69  44 3.69  34 3.69  33 3.69
  48  0.153  0.153  0.000-  47 2.04  38 2.04  34 2.04

  LATTYP: Found a simple tetragonal cell.
 ALAT       =     9.4320271667
 C/A-ratio  =     0.6685526591

  Lattice vectors:

 A1 = (   9.4320271667,   0.0000000000,   0.0000000000)
 A2 = (   0.0000000000,   9.4320271667,   0.0000000000)
 A3 = (   0.0000000000,   0.0000000000,   6.3058068432)

Analysis of symmetry for initial positions (statically):
 Subroutine PRICEL returns:
 Original cell was already a primitive cell.

 Routine SETGRP: Setting up the symmetry group for a
 simple tetragonal supercell.

 Subroutine GETGRP returns: Found  4 space group operations
 (whereof  4 operations were pure point group operations)
 out of a pool of 16 trial point group operations.

The static configuration has the point symmetry C_2v.

Analysis of symmetry for dynamics (positions and initial velocities):
 Subroutine PRICEL returns:
 Original cell was already a primitive cell.

[...]

The dynamic configuration has the point symmetry C_2v.

Analysis of constrained symmetry for selective dynamics:
 Subroutine PRICEL returns:
 Original cell was already a primitive cell.

 Routine SETGRP: Setting up the symmetry group for a
 simple tetragonal supercell.

 Subroutine GETGRP returns: Found  4 space group operations
 (whereof  4 operations were pure point group operations)
 out of a pool of 16 trial point group operations.

The constrained configuration has the point symmetry C_2v.

 Subroutine INISYM returns: Found  4 space group operations
 (whereof  4 operations are pure point group operations),
 and found     1 'primitive' translations

 KPOINTS: Automatic mesh

Automatic generation of k-mesh.
Space group operators:
 irot       det(A)        alpha          n_x          n_y          n_z        tau_x        tau_y        tau_z
    1     1.000000     0.000000     1.000000     0.000000     0.000000     0.000000     0.000000     0.000000
    2    -1.000000   180.000000     0.000000     0.000000     1.000000     0.000000     0.000000     0.000000
    3     1.000000   180.000000     0.707107     0.707107     0.000000     0.000000     0.000000     0.000000
    4    -1.000000   180.000000     0.707107    -0.707107     0.000000     0.000000     0.000000     0.000000

 Subroutine IBZKPT returns following result:

 Found      8 irreducible k-points:

 Following reciprocal coordinates:
            Coordinates               Weight
  0.000000  0.000000  0.125000      2.000000
  0.333333  0.000000  0.125000      8.000000
  0.333333  0.333333  0.125000      4.000000
 -0.333333  0.333333  0.125000      4.000000
  0.000000  0.000000  0.375000      2.000000
  0.333333  0.000000  0.375000      8.000000
  0.333333  0.333333  0.375000      4.000000
 -0.333333  0.333333  0.375000      4.000000

 Following cartesian coordinates:
            Coordinates               Weight
  0.000000  0.000000  0.019823      2.000000
  0.035341  0.000000  0.019823      8.000000
  0.035341  0.035341  0.019823      4.000000
 -0.035341  0.035341  0.019823      4.000000
  0.000000  0.000000  0.059469      2.000000
  0.035341  0.000000  0.059469      8.000000
  0.035341  0.035341  0.059469      4.000000
 -0.035341  0.035341  0.059469      4.000000

 I would recommend the setting:
   dimension x,y,z NGX =    67 NGY =   67 NGZ =   45
 SYSTEM =  SnO2
 POSCAR =  SnO2

 Startparameter for this run:
   NWRITE =      2    write-flag & timer
   PREC   = accura    normal or accurate (medium, high low for compatibility)
   ISTART =      0    job   : 0-new  1-cont  2-samecut
   ICHARG =      2    charge: 1-file 2-atom 10-const
   ISPIN  =      1    spin polarized calculation?
   LNONCOLLINEAR =      F non collinear calculations
   LSORBIT =      F    spin-orbit coupling
   INIWAV =      1    electr: 0-lowe 1-rand  2-diag
   LASPH  =      F    aspherical Exc in radial PAW
   METAGGA=      F    non-selfconsistent MetaGGA calc.

 Electronic Relaxation 1
   ENCUT  =  480.0 eV  35.28 Ry    5.94 a.u.  16.85 16.85 11.26*2*pi/ulx,y,z
   ENINI  =  480.0     initial cutoff
   ENAUG  =  605.4 eV  augmentation charge cutoff
   NELM   =     60;   NELMIN=  2; NELMDL= -5     # of ELM steps
   EDIFF  = 0.1E-03   stopping-criterion for ELM
   LREAL  =      F    real-space projection
   NLSPLINE    = F    spline interpolate recip. space projectors
   LCOMPAT=      F    compatible to vasp.4.4
   GGA_COMPAT  = T    GGA compatible to vasp.4.4-vasp.4.6
   LMAXPAW     = -100 max onsite density
   LMAXMIX     =    4 max onsite mixed and CHGCAR
   VOSKOWN=      0    Vosko Wilk Nusair interpolation
   ROPT   =    0.00000   0.00000   0.00000
 Ionic relaxation
   EDIFFG = -.5E-01   stopping-criterion for IOM
   NSW    =    100    number of steps for IOM
   NBLOCK =      1;   KBLOCK =    100    inner block; outer block
   IBRION =      2    ionic relax: 0-MD 1-quasi-New 2-CG
   NFREE  =      1    steps in history (QN), initial steepest desc. (CG)
   ISIF   =      2    stress and relaxation
   IWAVPR =     11    prediction:  0-non 1-charg 2-wave 3-comb
   ISYM   =      2    0-nonsym 1-usesym 2-fastsym
   LCORR  =      T    Harris-Foulkes like correction to forces

[...]
      11 -67.7529      12 -67.7485      13 -68.0270      14 -67.7604      15 -67.7604
      16 -67.8989      17 -67.7724      18 -67.9799      19 -67.7715      20 -67.7604
      21 -68.0422      22 -67.9799      23 -67.7529      24 -67.7107      25 -68.0012
      26 -67.7508      27 -67.9274      28 -67.9274      29 -67.9274      30 -68.1472
      31 -67.9274      32 -98.8648      33 -98.9246      34 -99.3397      35 -99.0682
      36 -98.9246      37 -98.9636      38 -99.3397      39 -98.8857      40 -98.8857
      41 -98.9636      42 -98.8896      43 -98.8857      44 -98.8857      45 -98.8896
      46 -98.9165      47 -99.3014      48 -29.2281

 E-fermi :   6.6676     XC(G=0): -11.2839     alpha+bet :-14.4869

[...]

 k-point     8 :      -0.3333    0.3333    0.3750
  band No.  band energies     occupation
      1     -16.8706      2.00000
      2     -16.7857      2.00000
      3     -16.7595      2.00000
      4     -16.7335      2.00000
      5     -16.7013      2.00000
      6     -16.5616      2.00000
      7     -16.5504      2.00000
      8     -16.5336      2.00000
      9     -16.5036      2.00000
     10     -16.4920      2.00000
     11     -16.4844      2.00000
     12     -16.4682      2.00000
     13     -16.4174      2.00000
     14     -16.3855      2.00000
     15     -16.3649      2.00000
     16     -16.3584      2.00000
     17     -16.3353      2.00000
     18     -16.3097      2.00000
     19     -16.3016      2.00000
     20     -16.2735      2.00000
     21     -16.2153      2.00000
     22     -16.2017      2.00000
     23     -16.1569      2.00000
     24     -16.1390      2.00000
     25     -16.1358      2.00000
     26     -16.1116      2.00000
     27     -16.0971      2.00000
     28     -16.0608      2.00000
     29     -16.0585      2.00000
     30     -16.0393      2.00000
     31     -16.0194      2.00000
     32     -16.0004      2.00000
     33     -15.9459      2.00000
     34     -15.8596      2.00000
     35     -15.8589      2.00000
     36     -15.8383      2.00000
     37     -15.8377      2.00000
     38     -15.8315      2.00000
     39     -15.7900      2.00000
     40     -15.7839      2.00000
     41     -15.7553      2.00000
     42     -15.6003      2.00000
     43     -15.5614      2.00000
     44     -15.5434      2.00000
     45     -15.5326      2.00000
     46     -15.5312      2.00000
     47     -15.5182      2.00000
     48     -15.4873      2.00000
     49     -15.4755      2.00000
     50     -15.4680      2.00000
     51     -15.4569      2.00000
     52     -15.4548      2.00000
     53     -15.4534      2.00000
     54     -15.4501      2.00000
     55     -15.4491      2.00000
     56     -15.4442      2.00000
     57     -15.4323      2.00000
     58     -15.4222      2.00000
     59     -15.4209      2.00000
     60     -15.4176      2.00000
[...]
    234      15.1512      0.00000
    235      15.3556      0.00000
    236      15.5710      0.00000
    237      15.6516      0.00000
    238      15.6660      0.00000
    239      15.7502      0.00000
    240      15.8370      0.00000
    241      15.9300      0.00000
    242      15.9434      0.00000
    243      16.0021      0.00000
    244      16.0404      0.00000
    245      16.1459      0.00000
    246      16.5286      0.00000
    247      16.9484      0.00000
    248      17.3151      0.00000

 soft charge-density along one line, spin component           1
         0         1         2         3         4         5         6         7         8         9
 total charge-density along one line

------------------------ aborting loop because EDIFF is reached ----------------------------------------

  FORCE on cell =-STRESS in cart. coord.  units (eV):
  Direction    XX          YY          ZZ          XY          YZ          ZX
  Alpha Z  1465.43815  1465.43815  1465.43815
  Ewald  -12778.06596-12778.06596 -7543.42116  -272.03144     0.00000     0.00000
  Hartree  2778.31729  2778.31729  5718.58019  -171.50941     0.00000     0.00000
  E(xc)   -2088.12104 -2088.12104 -2082.78072    -0.26909     0.00000     0.00000
  Local    1631.69890  1631.69890 -6391.87787   441.83937     0.00000     0.00000
  n-local   106.98521   106.72275   190.13645    -3.06890     0.06042     0.07886
  augment  3173.93872  3173.93872  3145.09300    -0.00787     0.00000     0.00000
  Kinetic  5696.51610  5697.53789  5486.14691     7.34040    -0.35888    -0.45324
  Fock        0.00000     0.00000     0.00000     0.00000     0.00000     0.00000
  Total     -12.91296   -12.91296   -12.68505     2.29296     0.00000     0.00000
  in kB     -36.87956   -36.87956   -36.22864     6.54872     0.00000     0.00000

 VOLUME and BASIS-vectors are now :
  energy-cutoff  :      480.00
  volume of cell :      560.98
      direct lattice vectors                 reciprocal lattice vectors
     9.432027167  0.000000000  0.000000000     0.106021747  0.000000000  0.000000000
     0.000000000  9.432027167  0.000000000     0.000000000  0.106021747  0.000000000
     0.000000000  0.000000000  6.305806843     0.000000000  0.000000000  0.158583989

  length of vectors
     9.432027167  9.432027167  6.305806843     0.106021747  0.106021747  0.158583989

 FORCES acting on ions
    electron-ion (+dipol)            ewald-force                    non-local-force                 convergence-correction
   -.600E+02 -.111E+02 -.144E+02   0.652E+02 0.914E+01 0.133E+02   -.516E+01 0.201E+01 0.107E+01   -.260E-01 -.182E-01 -.504E-02
   0.534E+02 -.338E+02 -.267E+01   -.564E+02 0.361E+02 0.255E+01   0.297E+01 -.223E+01 0.146E+00   -.308E-03 -.372E-02 0.176E-02
   0.251E+02 -.374E+02 0.157E+01   -.279E+02 0.405E+02 -.179E+01   0.279E+01 -.311E+01 0.221E+00   0.144E-01 0.111E-01 -.228E-02
   0.360E+02 0.410E+02 0.111E-05   -.384E+02 -.437E+02 -.284E-13   0.239E+01 0.267E+01 0.000E+00   -.770E-02 0.156E-01 0.308E-11
   -.671E+02 -.157E+02 0.122E-05   0.698E+02 0.182E+02 0.282E-13   -.280E+01 -.247E+01 0.000E+00   0.223E-01 -.154E-01 -.383E-12
   -.111E+02 -.600E+02 0.144E+02   0.914E+01 0.652E+02 -.133E+02   0.201E+01 -.516E+01 -.107E+01   -.182E-01 -.260E-01 0.504E-02
   -.338E+02 0.534E+02 0.267E+01   0.361E+02 -.564E+02 -.255E+01   -.223E+01 0.297E+01 -.146E+00   -.372E-02 -.308E-03 -.176E-02
   0.321E+02 0.435E+02 0.799E-06   -.341E+02 -.462E+02 0.266E-13   0.206E+01 0.272E+01 0.000E+00   0.806E-04 0.690E-02 -.317E-11
   -.211E+02 -.549E+02 -.219E-05   0.233E+02 0.577E+02 0.541E-14   -.227E+01 -.277E+01 0.000E+00   0.263E-02 -.556E-02 -.180E-11
   -.549E+02 -.211E+02 -.219E-05   0.577E+02 0.233E+02 -.202E-15   -.277E+01 -.227E+01 0.000E+00   -.556E-02 0.263E-02 0.316E-11
   -.338E+02 0.534E+02 -.267E+01   0.361E+02 -.564E+02 0.255E+01   -.223E+01 0.297E+01 0.146E+00   -.372E-02 -.308E-03 0.176E-02
   0.350E+02 0.350E+02 0.258E-05   -.372E+02 -.372E+02 0.691E-14   0.222E+01 0.222E+01 0.000E+00   -.119E-01 -.119E-01 -.746E-13
   -.473E+02 -.473E+02 0.657E-06   0.475E+02 0.475E+02 -.422E-13   -.220E+00 -.220E+00 0.000E+00   0.258E-02 0.258E-02 -.662E-11
   0.251E+02 -.374E+02 -.157E+01   -.279E+02 0.405E+02 0.179E+01   0.279E+01 -.311E+01 -.221E+00   0.144E-01 0.111E-01 0.228E-02
   -.374E+02 0.251E+02 -.157E+01   0.405E+02 -.279E+02 0.179E+01   -.311E+01 0.279E+01 -.221E+00   0.111E-01 0.144E-01 0.228E-02
   0.350E+02 0.350E+02 0.235E-05   -.377E+02 -.377E+02 -.397E-13   0.271E+01 0.271E+01 0.000E+00   0.875E-02 0.875E-02 -.302E-12
   -.530E+02 -.530E+02 -.867E-06   0.551E+02 0.551E+02 0.498E-14   -.218E+01 -.218E+01 0.000E+00   -.944E-03 -.944E-03 -.222E-12
   -.111E+02 -.600E+02 -.144E+02   0.914E+01 0.652E+02 0.133E+02   0.201E+01 -.516E+01 0.107E+01   -.182E-01 -.260E-01 -.504E-02
   0.435E+02 0.321E+02 0.799E-06   -.462E+02 -.341E+02 -.920E-14   0.272E+01 0.206E+01 0.000E+00   0.690E-02 0.806E-04 0.507E-12
   -.374E+02 0.251E+02 0.157E+01   0.405E+02 -.279E+02 -.179E+01   -.311E+01 0.279E+01 0.221E+00   0.111E-01 0.144E-01 -.228E-02
   -.235E+02 -.235E+02 -.127E-05   0.276E+02 0.276E+02 0.310E-13   -.411E+01 -.411E+01 0.000E+00   0.960E-02 0.960E-02 0.472E-11
   -.600E+02 -.111E+02 0.144E+02   0.652E+02 0.914E+01 -.133E+02   -.516E+01 0.201E+01 -.107E+01   -.260E-01 -.182E-01 0.504E-02
   0.534E+02 -.338E+02 0.267E+01   -.564E+02 0.361E+02 -.255E+01   0.297E+01 -.223E+01 -.146E+00   -.308E-03 -.372E-02 -.176E-02
   -.157E+02 -.671E+02 0.122E-05   0.182E+02 0.698E+02 -.118E-13   -.247E+01 -.280E+01 0.000E+00   -.154E-01 0.223E-01 -.588E-12
   0.482E+02 0.482E+02 -.417E-06   -.516E+02 -.516E+02 0.357E-13   0.342E+01 0.342E+01 0.000E+00   0.526E-03 0.526E-03 0.593E-12
   0.410E+02 0.360E+02 0.111E-05   -.437E+02 -.384E+02 -.189E-13   0.267E+01 0.239E+01 0.000E+00   0.156E-01 -.770E-02 -.476E-12
   -.333E+02 0.780E+02 0.223E+02   0.336E+02 -.798E+02 -.224E+02   -.265E+00 0.180E+01 0.824E-01   0.168E-01 0.532E-02 0.945E-02
   0.780E+02 -.333E+02 -.223E+02   -.798E+02 0.336E+02 0.224E+02   0.180E+01 -.265E+00 -.824E-01   0.532E-02 0.168E-01 -.945E-02
   -.333E+02 0.780E+02 -.223E+02   0.336E+02 -.798E+02 0.224E+02   -.265E+00 0.180E+01 -.824E-01   0.168E-01 0.532E-02 -.945E-02
   0.567E-01 0.567E-01 0.102E-05   0.427E+01 0.427E+01 0.563E-14   -.432E+01 -.432E+01 0.000E+00   -.200E-02 -.200E-02 -.420E-11
   0.780E+02 -.333E+02 0.223E+02   -.798E+02 0.336E+02 -.224E+02   0.180E+01 -.265E+00 0.824E-01   0.532E-02 0.168E-01 0.945E-02
   0.119E+02 0.119E+02 0.597E-05   -.116E+02 -.116E+02 0.225E-13   -.206E+00 -.206E+00 0.000E+00   -.104E-01 -.104E-01 0.745E-11
   -.214E+02 -.214E+02 0.469E+01   0.210E+02 0.210E+02 -.470E+01   0.392E+00 0.392E+00 0.594E-01   0.147E-01 0.147E-01 -.199E-01
   0.121E+03 0.121E+03 0.172E+03   -.119E+03 -.119E+03 -.169E+03   -.219E+01 -.219E+01 -.301E+01   0.651E-02 0.651E-02 0.181E-02
   -.367E+02 -.367E+02 0.516E-05   0.365E+02 0.365E+02 -.953E-14   0.170E+00 0.170E+00 0.000E+00   -.168E-01 -.168E-01 0.124E-12
   -.214E+02 -.214E+02 -.469E+01   0.210E+02 0.210E+02 0.470E+01   0.392E+00 0.392E+00 -.594E-01   0.147E-01 0.147E-01 0.199E-01
   -.347E+02 0.322E+02 -.268E-05   0.334E+02 -.313E+02 -.827E-13   0.130E+01 -.876E+00 0.000E+00   0.199E-01 0.741E-02 0.308E-11
   0.121E+03 0.121E+03 -.172E+03   -.119E+03 -.119E+03 0.169E+03   -.219E+01 -.219E+01 0.301E+01   0.651E-02 0.651E-02 -.181E-02
   0.312E+02 -.338E+02 -.254E+01   -.304E+02 0.334E+02 0.280E+01   -.823E+00 0.423E+00 -.270E+00   -.166E-01 -.203E-01 0.498E-02
   -.338E+02 0.312E+02 -.254E+01   0.334E+02 -.304E+02 0.280E+01   0.423E+00 -.823E+00 -.270E+00   -.203E-01 -.166E-01 0.498E-02
   0.322E+02 -.347E+02 -.268E-05   -.313E+02 0.334E+02 -.428E-13   -.876E+00 0.130E+01 0.000E+00   0.741E-02 0.199E-01 0.958E-11
   -.394E+02 0.517E+02 -.221E-05   0.387E+02 -.513E+02 0.667E-14   0.684E+00 -.441E+00 0.000E+00   0.228E-01 -.736E-03 -.232E-11
   0.312E+02 -.338E+02 0.254E+01   -.304E+02 0.334E+02 -.280E+01   -.823E+00 0.423E+00 0.270E+00   -.166E-01 -.203E-01 -.498E-02
   -.338E+02 0.312E+02 0.254E+01   0.334E+02 -.304E+02 -.280E+01   0.423E+00 -.823E+00 0.270E+00   -.203E-01 -.166E-01 -.498E-02
   0.517E+02 -.394E+02 -.221E-05   -.513E+02 0.387E+02 -.933E-14   -.441E+00 0.684E+00 0.000E+00   -.736E-03 0.228E-01 -.492E-11
   0.315E+02 0.315E+02 0.379E-05   -.301E+02 -.301E+02 0.484E-13   -.139E+01 -.139E+01 0.000E+00   -.829E-02 -.829E-02 0.671E-11
   -.165E+03 -.165E+03 -.167E-05   0.161E+03 0.161E+03 0.525E-14   0.374E+01 0.374E+01 0.000E+00   -.632E-03 -.632E-03 -.394E-11
   0.102E+02 0.102E+02 -.687E-07   -.104E+02 -.104E+02 -.985E-16   0.307E+00 0.307E+00 0.000E+00   -.406E-02 -.406E-02 -.103E-12
   0.650E+01 0.650E+01 0.107E-04   0.462E-13 0.512E-12 0.158E-12   -.648E+01 -.648E+01 0.611E-15   0.172E-02 0.172E-02 0.303E-10

 POSITION                                       TOTAL-FORCE (eV/Angst)
      0.94377      8.56155      4.75245         0.001940      0.006072      0.002520
      3.79544      5.61993      4.73028        -0.005849     -0.010499      0.021387
      8.51912      5.62732      4.72374         0.002633     -0.008770     -0.007879
      6.16180      1.43316      0.00000         0.004754     -0.009542      0.000000
      7.98798      3.27461      0.00000        -0.013051      0.016656      0.000000
      8.56155      0.94377      1.55335         0.006072      0.001940     -0.002520
      5.61993      3.79544      1.57552        -0.010499     -0.005849     -0.021387
      6.15929      1.43464      3.15290         0.000284     -0.008538      0.000000
      3.26271      7.99364      3.15290        -0.017387     -0.016596      0.000000
      7.99364      3.26271      3.15290        -0.016596     -0.017387      0.000000
      5.61993      3.79544      4.73028        -0.010499     -0.005849      0.021387
      6.15701      6.15701      0.00000        -0.005817     -0.005817      0.000000
      7.95931      7.95931      0.00000        -0.001721     -0.001721      0.000000
      8.51912      5.62732      1.58207         0.002633     -0.008770      0.007879
      5.62732      8.51912      1.58207        -0.008770      0.002633      0.007879
      6.15767      6.15767      3.15290         0.024626      0.024626      0.000000
      7.99928      7.99928      3.15290        -0.009453     -0.009453      0.000000
      8.56155      0.94377      4.75245         0.006072      0.001940      0.002520
      1.43464      6.15929      3.15290        -0.008538      0.000284      0.000000
      5.62732      8.51912      4.72374        -0.008770      0.002633     -0.007879
      3.29366      3.29366      3.15290        -0.003195     -0.003195      0.000000
      0.94377      8.56155      1.55335         0.001940      0.006072     -0.002520
      3.79544      5.61993      1.57552        -0.005849     -0.010499     -0.021387
      3.27461      7.98798      0.00000         0.016656     -0.013051      0.000000
      1.45739      1.45739      3.15290        -0.002089     -0.002089      0.000000
      1.43316      6.16180      0.00000        -0.009542      0.004754      0.000000
      0.90989      3.76094      1.55754         0.000623      0.014957      0.012337
      3.76094      0.90989      4.74827         0.014957      0.000623     -0.012337
      0.90989      3.76094      4.74827         0.000623      0.014957     -0.012337
      3.25139      3.25139      0.00000        -0.001117     -0.001117      0.000000
      3.76094      0.90989      1.55754         0.014957      0.000623      0.012337
      4.72964      4.72964      3.15290         0.010208      0.010208      0.000000
      7.06084      7.06084      4.71975         0.010589      0.010589      0.033041
      2.39423      2.39423      1.60476        -0.003924     -0.003924      0.000348
      0.01083      0.01083      3.15290        -0.010219     -0.010219      0.000000
      7.06084      7.06084      1.58606         0.010589      0.010589     -0.033041
     -0.00144      4.70630      3.15290        -0.019426     -0.003110      0.000000
      2.39423      2.39423      4.70104        -0.003924     -0.003924     -0.000348
      2.36479      7.06850      4.73233         0.004486      0.010509     -0.009104
      7.06850      2.36479      4.73233         0.010509      0.004486     -0.009104
      4.70630     -0.00144      3.15290        -0.003110     -0.019426      0.000000
     -0.01279      4.72503      0.00000        -0.021761      0.008807      0.000000
      2.36479      7.06850      1.57348         0.004486      0.010509      0.009104
      7.06850      2.36479      1.57348         0.010509      0.004486      0.009104
      4.72503     -0.01279      0.00000         0.008807     -0.021761      0.000000
      4.72387      4.72387      0.00000         0.013301      0.013301      0.000000
     -0.07662     -0.07662      0.00000        -0.007655     -0.007655      0.000000
      1.46358      1.46358      0.00000         0.026508      0.026508      0.000000
    total drift:                                0.027231      0.027231      0.000011

  FREE ENERGIE OF THE ION-ELECTRON SYSTEM (eV)
  free  energy   TOTEN  =      -317.28627172 eV

  energy  without entropy=     -317.28627172  energy(sigma->0) =     -317.28627172

 d Force = 0.1189826E-02[ 0.279E-03, 0.210E-02]  d Energy = 0.1283229E-02-0.934E-04
 d Force = 0.1466715E+01[ 0.146E+01, 0.148E+01]  d Ewald  = 0.1466718E+01-0.311E-05

 Conjugate gradient step on ions:
 trial-energy change:   -0.001283  1 .order   -0.001190   -0.002100   -0.000279
  (g-gl).g = 0.212E-02      g.g   = 0.205E-02  gl.gl    = 0.271E-02
 g(Force)  = 0.205E-02   g(Stress)= 0.000E+00 ortho     =-0.559E-04
 gamma     =   0.78414
 trial     =   1.04791
 opt step  =   1.20873  (harmonic =   1.20873) maximal distance =0.00760374
 next E    =  -317.286200   (d E  =  -0.00121)

 reached required accuracy - stopping structural energy minimisation
 writing wavefunctions