 vasp.5.4.1 05Feb16 (build Dec 31 2016 05:41:53) complex

 executed on           IFC91_ompi date 2017.08.16  02:27:15

 INCAR:
 POTCAR:    PAW_PBE O 08Apr2002
 POTCAR:    PAW_PBE Sn_d 06Sep2000
 POTCAR:    PAW_PBE O 08Apr2002
   VRHFIN =O: s2p4

   TITEL  = PAW_PBE O 08Apr2002
   POMASS =   16.000; ZVAL   =    6.000    mass and valenz
   ENMAX  =  400.000; ENMIN  =  300.000 eV

 POTCAR:    PAW_PBE Sn_d 06Sep2000
   VRHFIN =Sn: s2p2

   TITEL  = PAW_PBE Sn_d 06Sep2000
   POMASS =  118.710; ZVAL   =   14.000    mass and valenz
   ENMAX  =  241.083; ENMIN  =  180.812 eV

  PAW_PBE O 08Apr2002                   :
  PAW_PBE Sn_d 06Sep2000                :

 POSCAR: SnO2
  positions in direct lattice
  velocities in cartesian coordinates
 exchange correlation table for  LEXCH =        8
   RHO(1)=    0.500       N(1)  =     2000
   RHO(2)=  100.500       N(2)  =     4000

 ion  position               nearest neighbor table
   1  0.099  0.904  0.751-  47 2.04  39 2.04  35 2.05
   2  0.403  0.597  0.749-  39 2.03  32 2.04  46 2.04
   3  0.902  0.598  0.750-  33 2.03  42 2.03  37 2.04
   4  0.653  0.153  0.000-  40 2.04  44 2.04  45 2.04
   5  0.847  0.347  0.000-  40 2.04  44 2.04  42 2.04
   6  0.904  0.099  0.249-  47 2.04  44 2.04  35 2.05
   7  0.597  0.403  0.251-  44 2.03  32 2.04  46 2.04
   8  0.653  0.152  0.500-  40 2.04  44 2.04  41 2.04
   9  0.347  0.847  0.500-  41 2.04  39 2.04  43 2.04
  10  0.847  0.347  0.500-  37 2.04  40 2.04  44 2.04
  11  0.597  0.403  0.749-  40 2.03  32 2.04  46 2.04
  12  0.654  0.654  0.000-  46 2.03  36 2.04  33 2.04
  13  0.848  0.848  0.000-  33 2.05  36 2.05  47 2.05
  14  0.902  0.598  0.250-  36 2.03  42 2.03  37 2.04
  15  0.598  0.902  0.250-  36 2.03  45 2.03  41 2.04
  16  0.653  0.653  0.500-  33 2.04  36 2.04  32 2.06
  17  0.848  0.848  0.500-  35 2.03  33 2.04  36 2.04
  18  0.904  0.099  0.751-  47 2.04  40 2.04  35 2.05
  19  0.152  0.653  0.500-  39 2.04  43 2.04  37 2.04
  20  0.598  0.902  0.750-  33 2.03  45 2.03  41 2.04
  21  0.344  0.344  0.500-  32 2.05  34 2.07  38 2.07
  22  0.099  0.904  0.249-  47 2.04  43 2.04  35 2.05
  23  0.403  0.597  0.251-  43 2.03  32 2.04  46 2.04
  24  0.347  0.847  0.000-  39 2.04  43 2.04  45 2.04
  25  0.151  0.151  0.500-  35 2.02  34 2.05  38 2.05
  26  0.153  0.653  0.000-  39 2.04  43 2.04  42 2.04
  27  0.095  0.403  0.248-  42 2.04  37 2.04  34 2.05
  28  0.403  0.095  0.752-  45 2.04  41 2.04  38 2.05
  29  0.095  0.403  0.752-  42 2.04  37 2.04  38 2.05
  30  0.349  0.349  0.000-  46 2.04  38 2.06  34 2.06
  31  0.403  0.095  0.248-  45 2.04  41 2.04  34 2.05
  32  0.498  0.498  0.500-   2 2.04   7 2.04  11 2.04  23 2.04  21 2.05  16 2.06  46 3.15  46 3.15
                            43 3.68  44 3.68  39 3.68  40 3.68  33 3.71  36 3.71  34 3.72  38 3.72
  33  0.750  0.750  0.750-   3 2.03  20 2.03  12 2.04  16 2.04  17 2.04  13 2.05  36 3.15  36 3.16
                            42 3.67  45 3.67  46 3.68  35 3.68  41 3.69  37 3.69  47 3.71  32 3.71
  34  0.247  0.247  0.245-  25 2.05  27 2.05  31 2.05  30 2.06  21 2.07  38 3.09  38 3.22  47 3.61
                            35 3.67  45 3.69  42 3.69  41 3.71  37 3.71  32 3.72  46 3.73
  35  1.000  1.000  0.500-  25 2.02  17 2.03   1 2.05  18 2.05  22 2.05   6 2.05  47 3.15  47 3.15
                            34 3.67  38 3.67  36 3.68  33 3.68  43 3.70  44 3.70  39 3.70  40 3.70
  36  0.750  0.750  0.250-  14 2.03  15 2.03  12 2.04  16 2.04  17 2.04  13 2.05  33 3.15  33 3.16
                            45 3.67  42 3.67  46 3.68  35 3.68  37 3.69  41 3.69  47 3.71  32 3.71
  37  0.999  0.500  0.500-  10 2.04   3 2.04  14 2.04  27 2.04  29 2.04  19 2.04  42 3.15  42 3.15
                            44 3.68  40 3.68  33 3.69  36 3.69  39 3.69  43 3.69  34 3.71  38 3.71
  38  0.247  0.247  0.755-  25 2.05  28 2.05  29 2.05  30 2.06  21 2.07  34 3.09  34 3.22  47 3.61
                            35 3.67  42 3.69  45 3.69  37 3.71  41 3.71  32 3.72  46 3.73
  39  0.251  0.749  0.750-   2 2.03   9 2.04  26 2.04  24 2.04  19 2.04   1 2.04  43 3.15  43 3.15
                            46 3.68  32 3.68  41 3.68  42 3.69  45 3.69  37 3.69  47 3.70  35 3.70
  40  0.749  0.251  0.750-  11 2.03  10 2.04   4 2.04   5 2.04   8 2.04  18 2.04  44 3.15  44 3.15
                            46 3.68  32 3.68  37 3.68  45 3.69  42 3.69  41 3.69  47 3.70  35 3.70
  41  0.500  0.999  0.500-   9 2.04  15 2.04  20 2.04  28 2.04  31 2.04   8 2.04  45 3.15  45 3.15
                            39 3.68  43 3.68  33 3.69  36 3.69  40 3.69  44 3.69  34 3.71  38 3.71
  42  0.999  0.502  0.000-   3 2.03  14 2.03  27 2.04  29 2.04  26 2.04   5 2.04  37 3.15  37 3.15
                            33 3.67  36 3.67  43 3.69  39 3.69  44 3.69  40 3.69  38 3.69  34 3.69
  43  0.251  0.749  0.250-  23 2.03   9 2.04  26 2.04  24 2.04  19 2.04  22 2.04  39 3.15  39 3.15
                            46 3.68  32 3.68  41 3.68  42 3.69  45 3.69  37 3.69  47 3.70  35 3.70
  44  0.749  0.251  0.250-   7 2.03  10 2.04   4 2.04   5 2.04   8 2.04   6 2.04  40 3.15  40 3.15
                            46 3.68  32 3.68  37 3.68  45 3.69  42 3.69  41 3.69  47 3.70  35 3.70
  45  0.502  0.999  0.000-  15 2.03  20 2.03  28 2.04  31 2.04   4 2.04  24 2.04  41 3.15  41 3.15
                            33 3.67  36 3.67  44 3.69  40 3.69  39 3.69  43 3.69  34 3.69  38 3.69
  46  0.501  0.501  0.000-  12 2.03  30 2.04  11 2.04   2 2.04  23 2.04   7 2.04  32 3.15  32 3.15
                            36 3.68  33 3.68  40 3.68  43 3.68  44 3.68  39 3.68  38 3.73  34 3.73
  47  0.002  0.002  0.000-   1 2.04   6 2.04  18 2.04  22 2.04  13 2.05  35 3.15  35 3.15  38 3.61
                            34 3.61  40 3.70  43 3.70  44 3.70  39 3.70  33 3.71  36 3.71

  LATTYP: Found a simple tetragonal cell.
 ALAT       =     9.4320271667
 C/A-ratio  =     0.6685526591

  Lattice vectors:

 A1 = (   9.4320271667,   0.0000000000,   0.0000000000)
 A2 = (   0.0000000000,   9.4320271667,   0.0000000000)
 A3 = (   0.0000000000,   0.0000000000,   6.3058068432)

Analysis of symmetry for initial positions (statically):
 Subroutine PRICEL returns:
 Original cell was already a primitive cell.

 Routine SETGRP: Setting up the symmetry group for a
 simple tetragonal supercell.

 Subroutine GETGRP returns: Found  4 space group operations
 (whereof  4 operations were pure point group operations)
 out of a pool of 16 trial point group operations.

The static configuration has the point symmetry C_2v.

Analysis of symmetry for dynamics (positions and initial velocities):
 Subroutine PRICEL returns:
 Original cell was already a primitive cell.

[...]

The dynamic configuration has the point symmetry C_2v.

Analysis of constrained symmetry for selective dynamics:
 Subroutine PRICEL returns:
 Original cell was already a primitive cell.

 Routine SETGRP: Setting up the symmetry group for a
 simple tetragonal supercell.

 Subroutine GETGRP returns: Found  4 space group operations
 (whereof  4 operations were pure point group operations)
 out of a pool of 16 trial point group operations.

The constrained configuration has the point symmetry C_2v.

 Subroutine INISYM returns: Found  4 space group operations
 (whereof  4 operations are pure point group operations),
 and found     1 'primitive' translations

 KPOINTS: Automatic mesh

Automatic generation of k-mesh.
Space group operators:
 irot       det(A)        alpha          n_x          n_y          n_z        tau_x        tau_y        tau_z
    1     1.000000     0.000000     1.000000     0.000000     0.000000     0.000000     0.000000     0.000000
    2    -1.000000   180.000000     0.000000     0.000000     1.000000     0.000000     0.000000     0.000000
    3     1.000000   180.000000     0.707107     0.707107     0.000000     0.000000     0.000000     0.000000
    4    -1.000000   180.000000     0.707107    -0.707107     0.000000     0.000000     0.000000     0.000000

 Subroutine IBZKPT returns following result:

 Found      8 irreducible k-points:

 Following reciprocal coordinates:
            Coordinates               Weight
  0.000000  0.000000  0.125000      2.000000
  0.333333  0.000000  0.125000      8.000000
  0.333333  0.333333  0.125000      4.000000
 -0.333333  0.333333  0.125000      4.000000
  0.000000  0.000000  0.375000      2.000000
  0.333333  0.000000  0.375000      8.000000
  0.333333  0.333333  0.375000      4.000000
 -0.333333  0.333333  0.375000      4.000000

 Following cartesian coordinates:
            Coordinates               Weight
  0.000000  0.000000  0.019823      2.000000
  0.035341  0.000000  0.019823      8.000000
  0.035341  0.035341  0.019823      4.000000
 -0.035341  0.035341  0.019823      4.000000
  0.000000  0.000000  0.059469      2.000000
  0.035341  0.000000  0.059469      8.000000
  0.035341  0.035341  0.059469      4.000000
 -0.035341  0.035341  0.059469      4.000000

 I would recommend the setting:
   dimension x,y,z NGX =    51 NGY =   51 NGZ =   34
 SYSTEM =  SnO2
 POSCAR =  SnO2

 Startparameter for this run:
   NWRITE =      2    write-flag & timer
   PREC   = normal    normal or accurate (medium, high low for compatibility)
   ISTART =      0    job   : 0-new  1-cont  2-samecut
   ICHARG =      2    charge: 1-file 2-atom 10-const
   ISPIN  =      1    spin polarized calculation?
   LNONCOLLINEAR =      F non collinear calculations
   LSORBIT =      F    spin-orbit coupling
   INIWAV =      1    electr: 0-lowe 1-rand  2-diag
   LASPH  =      F    aspherical Exc in radial PAW
   METAGGA=      F    non-selfconsistent MetaGGA calc.

 Electronic Relaxation 1
   ENCUT  =  480.0 eV  35.28 Ry    5.94 a.u.  16.85 16.85 11.26*2*pi/ulx,y,z
   ENINI  =  480.0     initial cutoff
   ENAUG  =  605.4 eV  augmentation charge cutoff
   NELM   =     60;   NELMIN=  2; NELMDL= -5     # of ELM steps
   EDIFF  = 0.1E-03   stopping-criterion for ELM
   LREAL  =      F    real-space projection
   NLSPLINE    = F    spline interpolate recip. space projectors
   LCOMPAT=      F    compatible to vasp.4.4
   GGA_COMPAT  = T    GGA compatible to vasp.4.4-vasp.4.6
   LMAXPAW     = -100 max onsite density
   LMAXMIX     =    4 max onsite mixed and CHGCAR
   VOSKOWN=      0    Vosko Wilk Nusair interpolation
   ROPT   =    0.00000   0.00000
 Ionic relaxation
   EDIFFG = -.5E-01   stopping-criterion for IOM
   NSW    =    100    number of steps for IOM
   NBLOCK =      1;   KBLOCK =    100    inner block; outer block
   IBRION =      2    ionic relax: 0-MD 1-quasi-New 2-CG
   NFREE  =      1    steps in history (QN), initial steepest desc. (CG)
   ISIF   =      2    stress and relaxation
   IWAVPR =     11    prediction:  0-non 1-charg 2-wave 3-comb
   ISYM   =      2    0-nonsym 1-usesym 2-fastsym
   LCORR  =      T    Harris-Foulkes like correction to forces

   POTIM  = 0.5000    time-step for ionic-motion
   TEIN   =    0.0    initial temperature
   TEBEG  =    0.0;   TEEND  =   0.0 temperature during run
   SMASS  =  -3.00    Nose mass-parameter (am)
   estimated Nose-frequenzy (Omega)   =  0.10E-29 period in steps =****** mass=  -0.203E-26a.u.
   SCALEE = 1.0000    scale energy and forces
[...]
  (the norm of the test charge is              1.0000)
       1 -68.0527       2 -67.7753       3 -67.7823       4 -67.7484       5 -67.7093
       6 -68.0527       7 -67.7753       8 -67.7613       9 -67.7587      10 -67.7587
      11 -67.7753      12 -67.7719      13 -68.1224      14 -67.7823      15 -67.7823
      16 -67.9560      17 -67.7836      18 -68.0527      19 -67.7613      20 -67.7823
      21 -68.1079      22 -68.0527      23 -67.7753      24 -67.7093      25 -68.0803
      26 -67.7484      27 -67.9447      28 -67.9447      29 -67.9447      30 -68.2848
      31 -67.9447      32 -98.8799      33 -98.9377      34 -99.3102      35 -99.0996
      36 -98.9377      37 -98.9483      38 -99.3102      39 -98.8847      40 -98.8847
      41 -98.9483      42 -98.8856      43 -98.8847      44 -98.8847      45 -98.8856
      46 -98.9315      47 -99.3411

 E-fermi :   7.6732     XC(G=0): -11.2563     alpha+bet :-14.4376

[...]

 k-point     8 :      -0.3333    0.3333    0.3750
  band No.  band energies     occupation
      1     -16.8407      2.00000
      2     -16.7823      2.00000
      3     -16.7536      2.00000
      4     -16.7319      2.00000
      5     -16.7015      2.00000
      6     -16.5684      2.00000
      7     -16.5523      2.00000
      8     -16.5385      2.00000
      9     -16.5162      2.00000
     10     -16.4957      2.00000
     11     -16.4906      2.00000
     12     -16.4479      2.00000
     13     -16.4163      2.00000
     14     -16.3917      2.00000
     15     -16.3701      2.00000
     16     -16.3638      2.00000
     17     -16.3429      2.00000
     18     -16.3067      2.00000
     19     -16.2875      2.00000
     20     -16.2688      2.00000
     21     -16.2229      2.00000
     22     -16.2115      2.00000
     23     -16.1482      2.00000
     24     -16.1426      2.00000
     25     -16.1376      2.00000
     26     -16.1201      2.00000
     27     -16.1020      2.00000
     28     -16.0675      2.00000
     29     -16.0645      2.00000
     30     -16.0368      2.00000
     31     -16.0172      2.00000
     32     -16.0017      2.00000
     33     -15.9232      2.00000
     34     -15.8927      2.00000
     35     -15.8833      2.00000
     36     -15.8360      2.00000
     37     -15.8305      2.00000
     38     -15.8197      2.00000
     39     -15.8088      2.00000
     40     -15.7432      2.00000
     41     -15.7155      2.00000
     42     -15.6313      2.00000
     43     -15.5910      2.00000
     44     -15.5699      2.00000
     45     -15.5445      2.00000
     46     -15.5223      2.00000
     47     -15.5165      2.00000
     48     -15.5002      2.00000
     49     -15.4726      2.00000
     50     -15.4667      2.00000
     51     -15.4644      2.00000
     52     -15.4631      2.00000
     53     -15.4536      2.00000
     54     -15.4503      2.00000
     55     -15.4440      2.00000
     56     -15.4384      2.00000
     57     -15.4381      2.00000
     58     -15.4345      2.00000
     59     -15.4307      2.00000
     60     -15.4293      2.00000
[...]
    234      15.1869      0.00000
    235      15.3837      0.00000
    236      15.5553      0.00000
    237      15.6302      0.00000
    238      15.6481      0.00000
    239      15.7363      0.00000
    240      15.8307      0.00000
    241      15.9259      0.00000
    242      15.9594      0.00000
    243      16.0251      0.00000
    244      16.1107      0.00000
    245      16.2291      0.00000
    246      16.9642      0.00000
    247      17.1786      0.00000
    248      17.2824      0.00000

 soft charge-density along one line, spin component           1
         0         1         2         3         4         5         6         7         8         9
 total charge-density along one line

------------------------ aborting loop because EDIFF is reached ----------------------------------------

  FORCE on cell =-STRESS in cart. coord.  units (eV):
  Direction    XX          YY          ZZ          XY          YZ          ZX
  Alpha Z  1460.09212  1460.09212  1460.09212
  Ewald  -12742.61636-12742.61636 -7494.75137  -309.47697     0.00000     0.00000
  Hartree  2802.35619  2802.35619  5757.28755  -197.15819     0.00000     0.00000
  E(xc)   -2084.93276 -2084.93276 -2079.62894    -0.41761     0.00000     0.00000
  Local    1578.40858  1578.40858 -6472.00962   505.73080     0.00000     0.00000
  n-local   117.16754   116.95012   200.11835    -2.24198     0.05657     0.03612
  augment  3170.91848  3170.91848  3142.03326    -0.65959     0.00000     0.00000
  Kinetic  5689.00247  5689.30547  5478.76433     6.40725    -0.30121    -0.21273
  Fock        0.00000     0.00000     0.00000     0.00000     0.00000     0.00000
  Total      -9.56096    -9.56096    -8.09433     2.18338     0.00000     0.00000
  in kB     -27.30619   -27.30619   -23.11750     6.23574     0.00000     0.00000

 VOLUME and BASIS-vectors are now :
  energy-cutoff  :      480.00
  volume of cell :      560.98
      direct lattice vectors                 reciprocal lattice vectors
     9.432027167  0.000000000  0.000000000     0.106021747  0.000000000  0.000000000
     0.000000000  9.432027167  0.000000000     0.000000000  0.106021747  0.000000000
     0.000000000  0.000000000  6.305806843     0.000000000  0.000000000  0.158583989

  length of vectors
     9.432027167  9.432027167  6.305806843     0.106021747  0.106021747  0.158583989

 FORCES acting on ions
    electron-ion (+dipol)            ewald-force                    non-local-force                 convergence-correction
   -.653E+02 -.240E+02 -.188E+02   0.709E+02 0.227E+02 0.178E+02   -.559E+01 0.133E+01 0.103E+01   -.188E-01 -.130E-01 -.501E-02
   0.587E+02 -.311E+02 -.322E+01   -.620E+02 0.331E+02 0.309E+01   0.320E+01 -.197E+01 0.111E+00   0.159E-01 0.240E-01 0.117E-01
   0.192E+02 -.352E+02 0.631E+00   -.216E+02 0.382E+02 -.740E+00   0.235E+01 -.301E+01 0.117E+00   -.160E-02 0.727E-02 -.546E-02
   0.363E+02 0.408E+02 0.164E-05   -.386E+02 -.435E+02 0.322E-15   0.240E+01 0.265E+01 0.000E+00   0.458E-02 0.462E-02 0.411E-11
   -.733E+02 -.104E+02 0.198E-04   0.761E+02 0.129E+02 -.282E-13   -.278E+01 -.248E+01 0.000E+00   0.155E-01 0.318E-02 0.789E-11
   -.240E+02 -.653E+02 0.188E+02   0.227E+02 0.709E+02 -.178E+02   0.133E+01 -.559E+01 -.103E+01   -.130E-01 -.188E-01 0.501E-02
   -.311E+02 0.587E+02 0.322E+01   0.331E+02 -.620E+02 -.309E+01   -.197E+01 0.320E+01 -.111E+00   0.240E-01 0.159E-01 -.117E-01
   0.321E+02 0.439E+02 -.572E-05   -.343E+02 -.467E+02 0.258E-13   0.218E+01 0.273E+01 0.000E+00   0.606E-02 -.304E-02 -.133E-11
   -.174E+02 -.596E+02 -.855E-05   0.197E+02 0.625E+02 -.206E-13   -.225E+01 -.285E+01 0.000E+00   0.443E-02 -.300E-02 -.516E-12
   -.596E+02 -.174E+02 -.855E-05   0.625E+02 0.197E+02 -.261E-13   -.285E+01 -.225E+01 0.000E+00   -.300E-02 0.443E-02 -.516E-11
   -.311E+02 0.587E+02 -.322E+01   0.331E+02 -.620E+02 0.309E+01   -.197E+01 0.320E+01 0.111E+00   0.240E-01 0.159E-01 0.117E-01
   0.342E+02 0.342E+02 0.956E-05   -.362E+02 -.362E+02 0.493E-14   0.199E+01 0.199E+01 0.000E+00   0.152E-01 0.152E-01 -.138E-11
   -.507E+02 -.507E+02 0.290E-05   0.504E+02 0.504E+02 -.736E-14   0.324E+00 0.324E+00 0.000E+00   -.236E-02 -.236E-02 -.210E-12
   0.192E+02 -.352E+02 -.631E+00   -.216E+02 0.382E+02 0.740E+00   0.235E+01 -.301E+01 -.117E+00   -.160E-02 0.727E-02 0.546E-02
   -.352E+02 0.192E+02 -.631E+00   0.382E+02 -.216E+02 0.740E+00   -.301E+01 0.235E+01 -.117E+00   0.727E-02 -.160E-02 0.546E-02
   0.350E+02 0.350E+02 0.438E-05   -.375E+02 -.375E+02 0.228E-13   0.257E+01 0.257E+01 0.000E+00   0.258E-01 0.258E-01 -.473E-11
   -.569E+02 -.569E+02 -.350E-05   0.589E+02 0.589E+02 0.762E-14   -.203E+01 -.203E+01 0.000E+00   -.179E-01 -.179E-01 0.735E-12
   -.240E+02 -.653E+02 -.188E+02   0.227E+02 0.709E+02 0.178E+02   0.133E+01 -.559E+01 0.103E+01   -.130E-01 -.188E-01 -.501E-02
   0.439E+02 0.321E+02 -.572E-05   -.467E+02 -.343E+02 -.121E-13   0.273E+01 0.218E+01 0.000E+00   -.304E-02 0.606E-02 -.280E-11
   -.352E+02 0.192E+02 0.631E+00   0.382E+02 -.216E+02 -.740E+00   -.301E+01 0.235E+01 0.117E+00   0.727E-02 -.160E-02 -.546E-02
   -.198E+02 -.198E+02 -.115E-04   0.243E+02 0.243E+02 -.257E-13   -.449E+01 -.449E+01 0.000E+00   -.133E-02 -.133E-02 0.137E-11
   -.653E+02 -.240E+02 0.188E+02   0.709E+02 0.227E+02 -.178E+02   -.559E+01 0.133E+01 -.103E+01   -.188E-01 -.130E-01 0.501E-02
   0.587E+02 -.311E+02 0.322E+01   -.620E+02 0.331E+02 -.309E+01   0.320E+01 -.197E+01 -.111E+00   0.159E-01 0.240E-01 -.117E-01
   -.104E+02 -.733E+02 0.198E-04   0.129E+02 0.761E+02 -.348E-13   -.248E+01 -.278E+01 0.000E+00   0.318E-02 0.155E-01 -.400E-12
   0.496E+02 0.496E+02 -.149E-04   -.528E+02 -.528E+02 -.282E-13   0.321E+01 0.321E+01 0.000E+00   -.213E-01 -.213E-01 -.131E-11
   0.408E+02 0.363E+02 0.164E-05   -.435E+02 -.386E+02 0.190E-13   0.265E+01 0.240E+01 0.000E+00   0.462E-02 0.458E-02 0.937E-12
   -.371E+02 0.905E+02 0.275E+02   0.377E+02 -.929E+02 -.275E+02   -.591E+00 0.249E+01 0.255E-01   -.207E-01 0.828E-02 0.102E-01
   0.905E+02 -.371E+02 -.275E+02   -.929E+02 0.377E+02 0.275E+02   0.249E+01 -.591E+00 -.255E-01   0.828E-02 -.207E-01 -.102E-01
   -.371E+02 0.905E+02 -.275E+02   0.377E+02 -.929E+02 0.275E+02   -.591E+00 0.249E+01 -.255E-01   -.207E-01 0.828E-02 -.102E-01
   0.102E+02 0.102E+02 0.118E-04   -.576E+01 -.576E+01 0.189E-15   -.436E+01 -.436E+01 0.000E+00   -.304E-01 -.304E-01 -.295E-11
   0.905E+02 -.371E+02 0.275E+02   -.929E+02 0.377E+02 -.275E+02   0.249E+01 -.591E+00 0.255E-01   0.828E-02 -.207E-01 0.102E-01
   0.167E+02 0.167E+02 0.355E-04   -.166E+02 -.166E+02 -.921E-13   -.243E+00 -.243E+00 0.000E+00   0.517E-01 0.517E-01 0.115E-10
   -.249E+02 -.249E+02 0.697E+01   0.245E+02 0.245E+02 -.705E+01   0.416E+00 0.416E+00 0.438E-01   -.102E-01 -.102E-01 0.148E-01
   0.144E+03 0.144E+03 0.209E+03   -.143E+03 -.143E+03 -.207E+03   -.802E+00 -.802E+00 -.189E+01   -.199E-01 -.199E-01 0.832E-02
   -.471E+02 -.471E+02 0.267E-04   0.469E+02 0.469E+02 -.268E-13   0.165E+00 0.165E+00 0.000E+00   -.323E-01 -.323E-01 -.445E-11
   -.249E+02 -.249E+02 -.697E+01   0.245E+02 0.245E+02 0.705E+01   0.416E+00 0.416E+00 -.438E-01   -.102E-01 -.102E-01 -.148E-01
   -.433E+02 0.417E+02 -.123E-04   0.423E+02 -.410E+02 0.122E-15   0.106E+01 -.675E+00 0.000E+00   -.444E-01 0.286E-01 -.129E-10
   0.144E+03 0.144E+03 -.209E+03   -.143E+03 -.143E+03 0.207E+03   -.802E+00 -.802E+00 0.189E+01   -.199E-01 -.199E-01 -.832E-02
   0.384E+02 -.429E+02 -.485E+01   -.376E+02 0.423E+02 0.505E+01   -.865E+00 0.501E+00 -.184E+00   -.344E-02 0.231E-01 -.817E-02
   -.429E+02 0.384E+02 -.485E+01   0.423E+02 -.376E+02 0.505E+01   0.501E+00 -.865E+00 -.184E+00   0.231E-01 -.344E-02 -.817E-02
   0.417E+02 -.433E+02 -.123E-04   -.410E+02 0.423E+02 0.493E-13   -.675E+00 0.106E+01 0.000E+00   0.286E-01 -.444E-01 -.134E-10
   -.523E+02 0.681E+02 -.132E-04   0.518E+02 -.678E+02 -.436E-13   0.563E+00 -.310E+00 0.000E+00   -.453E-01 0.278E-01 0.192E-10
   0.384E+02 -.429E+02 0.485E+01   -.376E+02 0.423E+02 -.505E+01   -.865E+00 0.501E+00 0.184E+00   -.344E-02 0.231E-01 0.817E-02
   -.429E+02 0.384E+02 0.485E+01   0.423E+02 -.376E+02 -.505E+01   0.501E+00 -.865E+00 0.184E+00   0.231E-01 -.344E-02 0.817E-02
   0.681E+02 -.523E+02 -.132E-04   -.678E+02 0.518E+02 -.524E-13   -.310E+00 0.563E+00 0.000E+00   0.278E-01 -.453E-01 0.451E-11
   0.439E+02 0.439E+02 0.236E-04   -.422E+02 -.422E+02 -.369E-13   -.163E+01 -.163E+01 0.000E+00   0.388E-01 0.388E-01 -.390E-11
   -.196E+03 -.196E+03 -.435E-05   0.193E+03 0.193E+03 0.697E-13   0.322E+01 0.322E+01 0.000E+00   -.256E-01 -.256E-01 0.687E-11
   0.614E+01 0.614E+01 0.104E-03   0.398E-12 0.171E-12 0.235E-12   -.612E+01 -.612E+01 0.222E-15   -.188E-01 -.188E-01 0.680E-11

 POSITION                                       TOTAL-FORCE (eV/Angst)
      0.95150      8.56937      4.75592         0.014576      0.013428      0.006457
      3.79382      5.61474      4.73152        -0.019041      0.007862     -0.004610
      8.51821      5.63518      4.72475        -0.020906     -0.003943      0.002713
      6.16368      1.43330      0.00000         0.015632     -0.013636      0.000000
      7.98265      3.28249      0.00000        -0.017470      0.012448      0.000000
      8.56937      0.95150      1.54989         0.013428      0.014576     -0.006457
      5.61474      3.79382      1.57429         0.007862     -0.019041      0.004610
      6.16184      1.43473      3.15290         0.006782     -0.020102      0.000000
      3.26782      7.98770      3.15290         0.003587      0.004862      0.000000
      7.98770      3.26782      3.15290         0.004862      0.003587      0.000000
      5.61474      3.79382      4.73152         0.007862     -0.019041     -0.004610
      6.15437      6.15437      0.00000         0.027523      0.027523      0.000000
      7.95127      7.95127      0.00000        -0.007664     -0.007664      0.000000
      8.51821      5.63518      1.58106        -0.020906     -0.003943     -0.002713
      5.63518      8.51821      1.58106        -0.003943     -0.020906     -0.002713
      6.15857      6.15857      3.15290         0.007983      0.007983      0.000000
      8.00118      8.00118      3.15290        -0.013239     -0.013239      0.000000
      8.56937      0.95150      4.75592         0.013428      0.014576      0.006457
      1.43473      6.16184      3.15290        -0.020102      0.006782      0.000000
      5.63518      8.51821      4.72475        -0.003943     -0.020906      0.002713
      3.29949      3.29949      3.15290         0.006085      0.006085      0.000000
      0.95150      8.56937      1.54989         0.014576      0.013428     -0.006457
      3.79382      5.61474      1.57429        -0.019041      0.007862      0.004610
      3.28249      7.98265      0.00000         0.012448     -0.017470      0.000000
      1.45687      1.45687      3.15290        -0.004855     -0.004855      0.000000
      1.43330      6.16368      0.00000        -0.013636      0.015632      0.000000
      0.90275      3.76353      1.55942        -0.006265      0.019940     -0.022619
      3.76353      0.90275      4.74638         0.019940     -0.006265      0.022619
      0.90275      3.76353      4.74638        -0.006265      0.019940      0.022619
      3.24278      3.24278      0.00000         0.006320      0.006320      0.000000
      3.76353      0.90275      1.55942         0.019940     -0.006265     -0.022619
      4.73430      4.73430      3.15290        -0.034262     -0.034262      0.000000
      7.05833      7.05833      4.71955         0.009448      0.009448     -0.016276
      2.40031      2.40031      1.61687         0.002040      0.002040      0.006758
      0.01196      0.01196      3.15290         0.012239      0.012239      0.000000
      7.05833      7.05833      1.58626         0.009448      0.009448      0.016276
      9.42243      4.71386      3.15290         0.017232     -0.008339      0.000000
      2.40031      2.40031      4.68894         0.002040      0.002040     -0.006758
      2.36855      7.06799      4.73227        -0.003714     -0.025835      0.009327
      7.06799      2.36855      4.73227        -0.025835     -0.003714      0.009327
      4.71386      9.42243      3.15290        -0.008339      0.017232      0.000000
      9.41690      4.72856      0.00000         0.012142     -0.005905      0.000000
      2.36855      7.06799      1.57354        -0.003714     -0.025835     -0.009327
      7.06799      2.36855      1.57354        -0.025835     -0.003714     -0.009327
      4.72856      9.41690      0.00000        -0.005905      0.012142      0.000000
      4.72716      4.72716      0.00000         0.014830      0.014830      0.000000
     -0.09621     -0.09621      0.00000         0.002628      0.002628      0.000000
    total drift:                                0.000746      0.000746      0.000104

  FREE ENERGIE OF THE ION-ELECTRON SYSTEM (eV)
  free  energy   TOTEN  =      -313.03186809 eV

  energy  without entropy=     -313.03051243  energy(sigma->0) =     -313.03119026

 d Force = 0.1292108E-02[ 0.234E-03, 0.235E-02]  d Energy = 0.1410066E-02-0.118E-03
 d Force =-0.2596633E+00[-0.288E+00,-0.231E+00]  d Ewald  =-0.2596553E+00-0.798E-05

 Conjugate gradient step on ions:
 trial-energy change:   -0.001410  1 .order   -0.001292   -0.002350   -0.000234
  (g-gl).g = 0.273E-02      g.g   = 0.259E-02  gl.gl    = 0.855E-02
 g(Force)  = 0.259E-02   g(Stress)= 0.000E+00 ortho     =-0.348E-03
 gamma     =   0.31855
 trial     =   0.94923
 opt step  =   1.05445  (harmonic =   1.05445) maximal distance =0.00428676
 next E    =  -313.031763   (d E  =  -0.00131)

 reached required accuracy - stopping structural energy minimisation
 writing wavefunctions