 vasp.5.4.1 05Feb16 (build Dec 31 2016 05:41:53) complex

 executed on           IFC91_ompi date 2017.08.16  09:50:57

 INCAR:
 POTCAR:    PAW_PBE O 08Apr2002
 POTCAR:    PAW_PBE Sn_d 06Sep2000
 POTCAR:    PAW_PBE O 08Apr2002
   VRHFIN =O: s2p4

   TITEL  = PAW_PBE O 08Apr2002
   POMASS =   16.000; ZVAL   =    6.000    mass and valenz
   ENMAX  =  400.000; ENMIN  =  300.000 eV

 POTCAR:    PAW_PBE Sn_d 06Sep2000
   VRHFIN =Sn: s2p2

   TITEL  = PAW_PBE Sn_d 06Sep2000
   POMASS =  118.710; ZVAL   =   14.000    mass and valenz
   ENMAX  =  241.083; ENMIN  =  180.812 eV

  PAW_PBE O 08Apr2002                   :
  PAW_PBE Sn_d 06Sep2000                :

 POSCAR: SnO2
  positions in direct lattice
  velocities in cartesian coordinates
 exchange correlation table for  LEXCH =        8
   RHO(1)=    0.500       N(1)  =     2000
   RHO(2)=  100.500       N(2)  =     4000

 ion  position               nearest neighbor table
   1  0.097  0.903  0.750-  40 2.04  36 2.04
   2  0.403  0.597  0.750-  40 2.04  33 2.04  47 2.04
   3  0.903  0.597  0.750-  34 2.04  38 2.04  43 2.04
   4  0.653  0.153  0.000-  46 2.04  45 2.04  41 2.04
   5  0.847  0.347  0.000-  43 2.04  41 2.04  45 2.04
   6  0.903  0.097  0.250-  45 2.04  36 2.04
   7  0.597  0.403  0.250-  45 2.04  33 2.04  47 2.04
   8  0.653  0.153  0.500-  42 2.04  41 2.04  45 2.04
   9  0.347  0.847  0.500-  42 2.04  40 2.04  44 2.04
  10  0.847  0.347  0.500-  38 2.04  41 2.04  45 2.04
  11  0.597  0.403  0.750-  41 2.04  33 2.04  47 2.04
  12  0.653  0.653  0.000-  47 2.04  37 2.04  34 2.04
  13  0.847  0.847  0.000-  34 2.04  37 2.04
  14  0.903  0.597  0.250-  37 2.04  38 2.04  43 2.04
  15  0.597  0.903  0.250-  37 2.04  42 2.04  46 2.04
  16  0.653  0.653  0.500-  33 2.04  34 2.04  37 2.04
  17  0.847  0.847  0.500-  36 2.04  34 2.04  37 2.04
  18  0.903  0.097  0.750-  41 2.04  36 2.04
  19  0.153  0.653  0.500-  38 2.04  40 2.04  44 2.04
  20  0.597  0.903  0.750-  34 2.04  42 2.04  46 2.04
  21  0.347  0.347  0.500-  33 2.04  35 2.04  39 2.04
  22  0.097  0.903  0.250-  44 2.04  36 2.04
  23  0.403  0.597  0.250-  44 2.04  33 2.04  47 2.04
  24  0.347  0.847  0.000-  46 2.04  44 2.04  40 2.04
  25  0.153  0.153  0.500-  36 2.04  35 2.04  39 2.04
  26  0.153  0.153  0.000-  35 2.04  39 2.04
  27  0.153  0.653  0.000-  43 2.04  40 2.04  44 2.04
  28  0.097  0.403  0.250-  35 2.04  38 2.04  43 2.04
  29  0.403  0.097  0.750-  39 2.04  42 2.04  46 2.04
  30  0.097  0.403  0.750-  39 2.04  38 2.04  43 2.04
  31  0.347  0.347  0.000-  47 2.04  39 2.04  35 2.04
  32  0.403  0.097  0.250-  35 2.04  42 2.04  46 2.04
  33  0.500  0.500  0.500-  16 2.04  21 2.04  11 2.04   2 2.04   7 2.04  23 2.04  47 3.15  47 3.15
                            37 3.69  39 3.69  40 3.69  41 3.69  44 3.69  45 3.69  34 3.69  35 3.69
  34  0.750  0.750  0.750-   3 2.04  20 2.04  13 2.04  16 2.04  17 2.04  12 2.04  37 3.15  37 3.15
                            33 3.69  38 3.69  42 3.69  43 3.69  46 3.69  47 3.69  36 3.69
  35  0.250  0.250  0.250-  28 2.04  32 2.04  26 2.04  21 2.04  31 2.04  25 2.04  39 3.15  39 3.15
                            38 3.69  33 3.69  42 3.69  43 3.69  46 3.69  47 3.69  36 3.69
  36  0.000  0.000  0.500-  17 2.04  25 2.04   1 2.04  18 2.04  22 2.04   6 2.04  34 3.69  35 3.69
                            37 3.69  39 3.69  40 3.69  41 3.69  44 3.69  45 3.69
  37  0.750  0.750  0.250-  14 2.04  15 2.04  12 2.04  13 2.04  16 2.04  17 2.04  34 3.15  34 3.15
                            36 3.69  38 3.69  42 3.69  43 3.69  46 3.69  47 3.69  33 3.69
  38  0.000  0.500  0.500-  10 2.04  19 2.04  14 2.04   3 2.04  28 2.04  30 2.04  43 3.15  43 3.15
                            37 3.69  39 3.69  40 3.69  41 3.69  34 3.69  44 3.69  45 3.69  35 3.69
  39  0.250  0.250  0.750-  29 2.04  30 2.04  26 2.04  21 2.04  25 2.04  31 2.04  35 3.15  35 3.15
                            36 3.69  38 3.69  42 3.69  43 3.69  46 3.69  47 3.69  33 3.69
  40  0.250  0.750  0.750-   1 2.04   2 2.04   9 2.04  19 2.04  24 2.04  27 2.04  44 3.15  44 3.15
                            38 3.69  42 3.69  43 3.69  33 3.69  46 3.69  47 3.69  36 3.69
  41  0.750  0.250  0.750-  11 2.04  18 2.04   8 2.04  10 2.04   4 2.04   5 2.04  45 3.15  45 3.15
                            38 3.69  42 3.69  43 3.69  33 3.69  46 3.69  47 3.69  36 3.69
  42  0.500  0.000  0.500-   8 2.04   9 2.04  15 2.04  20 2.04  29 2.04  32 2.04  46 3.15  46 3.15
                            37 3.69  39 3.69  40 3.69  41 3.69  44 3.69  45 3.69  34 3.69  35 3.69
  43  0.000  0.500  0.000-   5 2.04  27 2.04  14 2.04   3 2.04  28 2.04  30 2.04  38 3.15  38 3.15
                            37 3.69  34 3.69  39 3.69  40 3.69  41 3.69  44 3.69  45 3.69  35 3.69
  44  0.250  0.750  0.250-  22 2.04  23 2.04   9 2.04  19 2.04  24 2.04  27 2.04  40 3.15  40 3.15
                            38 3.69  33 3.69  42 3.69  43 3.69  46 3.69  47 3.69  36 3.69
  45  0.750  0.250  0.250-   6 2.04   7 2.04   4 2.04   5 2.04   8 2.04  10 2.04  41 3.15  41 3.15
                            38 3.69  33 3.69  42 3.69  43 3.69  46 3.69  47 3.69  36 3.69
  46  0.500  0.000  0.000-   4 2.04  24 2.04  20 2.04  15 2.04  29 2.04  32 2.04  42 3.15  42 3.15
                            37 3.69  39 3.69  40 3.69  41 3.69  34 3.69  44 3.69  45 3.69  35 3.69
  47  0.500  0.500  0.000-  12 2.04  31 2.04  11 2.04   2 2.04  23 2.04   7 2.04  33 3.15  33 3.15
                            35 3.69  37 3.69  39 3.69  40 3.69  41 3.69  44 3.69  45 3.69  34 3.69

  LATTYP: Found a simple tetragonal cell.
 ALAT       =     9.4320271667
 C/A-ratio  =     0.6685526591

  Lattice vectors:

 A1 = (   9.4320271667,   0.0000000000,   0.0000000000)
 A2 = (   0.0000000000,   9.4320271667,   0.0000000000)
 A3 = (   0.0000000000,   0.0000000000,   6.3058068432)

Analysis of symmetry for initial positions (statically):
 Subroutine PRICEL returns:
 Original cell was already a primitive cell.

 Routine SETGRP: Setting up the symmetry group for a
 simple tetragonal supercell.

 Subroutine GETGRP returns: Found  8 space group operations
 (whereof  8 operations were pure point group operations)
 out of a pool of 16 trial point group operations.

The static configuration has the point symmetry D_2h.

Analysis of symmetry for dynamics (positions and initial velocities):
 Subroutine PRICEL returns:
 Original cell was already a primitive cell.

[...]

The dynamic configuration has the point symmetry D_2h.

Analysis of constrained symmetry for selective dynamics:
 Subroutine PRICEL returns:
 Original cell was already a primitive cell.

 Routine SETGRP: Setting up the symmetry group for a
 simple tetragonal supercell.

 Subroutine GETGRP returns: Found  8 space group operations
 (whereof  8 operations were pure point group operations)
 out of a pool of 16 trial point group operations.

The constrained configuration has the point symmetry D_2h.

 Subroutine INISYM returns: Found  8 space group operations
 (whereof  8 operations are pure point group operations),
 and found     1 'primitive' translations

 KPOINTS: Automatic mesh

Automatic generation of k-mesh.
Space group operators:
 irot       det(A)        alpha          n_x          n_y          n_z        tau_x        tau_y        tau_z
    1     1.000000     0.000000     1.000000     0.000000     0.000000     0.000000     0.000000     0.000000
    2    -1.000000     0.000000     1.000000     0.000000     0.000000     0.000000     0.000000     0.000000
    3     1.000000   180.000000     0.000000     0.000000     1.000000     0.000000     0.000000     0.000000
    4    -1.000000   180.000000     0.000000     0.000000     1.000000     0.000000     0.000000     0.000000
    5     1.000000   180.000000     0.707107     0.707107     0.000000     0.000000     0.000000     0.000000
    6    -1.000000   180.000000     0.707107     0.707107     0.000000     0.000000     0.000000     0.000000
    7     1.000000   180.000000     0.707107    -0.707107     0.000000     0.000000     0.000000     0.000000
    8    -1.000000   180.000000     0.707107    -0.707107     0.000000     0.000000     0.000000     0.000000

 Subroutine IBZKPT returns following result:

 Found      8 irreducible k-points:

 Following reciprocal coordinates:
            Coordinates               Weight
  0.000000  0.000000  0.125000      2.000000
  0.333333  0.000000  0.125000      8.000000
  0.333333  0.333333  0.125000      4.000000
 -0.333333  0.333333  0.125000      4.000000
  0.000000  0.000000  0.375000      2.000000
  0.333333  0.000000  0.375000      8.000000
  0.333333  0.333333  0.375000      4.000000
 -0.333333  0.333333  0.375000      4.000000

 Following cartesian coordinates:
            Coordinates               Weight
  0.000000  0.000000  0.019823      2.000000
  0.035341  0.000000  0.019823      8.000000
  0.035341  0.035341  0.019823      4.000000
 -0.035341  0.035341  0.019823      4.000000
  0.000000  0.000000  0.059469      2.000000
  0.035341  0.000000  0.059469      8.000000
  0.035341  0.035341  0.059469      4.000000
 -0.035341  0.035341  0.059469      4.000000

 I would recommend the setting:
   dimension x,y,z NGX =    51 NGY =   51 NGZ =   34
 SYSTEM =  SnO2
 POSCAR =  SnO2

 Startparameter for this run:
   NWRITE =      2    write-flag & timer
   PREC   = normal    normal or accurate (medium, high low for compatibility)
   ISTART =      0    job   : 0-new  1-cont  2-samecut
   ICHARG =      2    charge: 1-file 2-atom 10-const
   ISPIN  =      1    spin polarized calculation?
   LNONCOLLINEAR =      F non collinear calculations
   LSORBIT =      F    spin-orbit coupling
   INIWAV =      1    electr: 0-lowe 1-rand  2-diag
   LASPH  =      F    aspherical Exc in radial PAW
   METAGGA=      F    non-selfconsistent MetaGGA calc.

 Electronic Relaxation 1
   ENCUT  =  480.0 eV  35.28 Ry    5.94 a.u.  16.85 16.85 11.26*2*pi/ulx,y,z
   ENINI  =  480.0     initial cutoff
   ENAUG  =  605.4 eV  augmentation charge cutoff
   NELM   =     60;   NELMIN=  2; NELMDL= -5     # of ELM steps
   EDIFF  = 0.1E-03   stopping-criterion for ELM
   LREAL  =      F    real-space projection
   NLSPLINE    = F    spline interpolate recip. space projectors
   LCOMPAT=      F    compatible to vasp.4.4
   GGA_COMPAT  = T    GGA compatible to vasp.4.4-vasp.4.6
   LMAXPAW     = -100 max onsite density
   LMAXMIX     =    4 max onsite mixed and CHGCAR
   VOSKOWN=      0    Vosko Wilk Nusair interpolation
   ROPT   =    0.00000   0.00000
 Ionic relaxation
   EDIFFG = -.5E-01   stopping-criterion for IOM
   NSW    =    100    number of steps for IOM
   NBLOCK =      1;   KBLOCK =    100    inner block; outer block
   IBRION =      1    ionic relax: 0-MD 1-quasi-New 2-CG
   NFREE  =      0    steps in history (QN), initial steepest desc. (CG)
   ISIF   =      2    stress and relaxation
   IWAVPR =     11    prediction:  0-non 1-charg 2-wave 3-comb
   ISYM   =      2    0-nonsym 1-usesym 2-fastsym
   LCORR  =      T    Harris-Foulkes like correction to forces

   POTIM  = 0.5000    time-step for ionic-motion
   TEIN   =    0.0    initial temperature
   TEBEG  =    0.0;   TEEND  =   0.0 temperature during run
   SMASS  =  -3.00    Nose mass-parameter (am)
[...]

 average (electrostatic) potential at core
  the test charge radii are     0.7215  1.0894
  (the norm of the test charge is              1.0000)
       1 -67.7141       2 -68.5155       3 -68.5954       4 -68.5248       5 -68.5248
       6 -67.7141       7 -68.5155       8 -68.4612       9 -68.4612      10 -68.4612
      11 -68.5155      12 -68.4099      13 -67.5021      14 -68.5954      15 -68.5954
      16 -68.4490      17 -68.3424      18 -67.7141      19 -68.4612      20 -68.5954
      21 -68.4490      22 -67.7141      23 -68.5155      24 -68.5248      25 -68.3424
      26 -67.5021      27 -68.5248      28 -68.5954      29 -68.5954      30 -68.5954
      31 -68.4099      32 -68.5954      33 -99.8265      34 -99.5251      35 -99.5251
      36 -98.7937      37 -99.5251      38 -99.7948      39 -99.5251      40 -99.5974
      41 -99.5974      42 -99.7948      43 -99.8569      44 -99.5974      45 -99.5974
      46 -99.8569      47 -99.6584

 E-fermi :   5.6581     XC(G=0): -11.1788     alpha+bet :-13.9527

[...]

 k-point     8 :      -0.3333    0.3333    0.3750
  band No.  band energies     occupation
      1     -17.4377      2.00000
      2     -17.4259      2.00000
      3     -17.4131      2.00000
      4     -17.4054      2.00000
      5     -17.3774      2.00000
      6     -17.3466      2.00000
      7     -17.3362      2.00000
      8     -17.2743      2.00000
      9     -17.2389      2.00000
     10     -17.2150      2.00000
     11     -17.1614      2.00000
     12     -17.1536      2.00000
     13     -17.0903      2.00000
     14     -17.0890      2.00000
     15     -17.0351      2.00000
     16     -17.0285      2.00000
     17     -16.9639      2.00000
     18     -16.9585      2.00000
     19     -16.9395      2.00000
     20     -16.9328      2.00000
     21     -16.9125      2.00000
     22     -16.8913      2.00000
     23     -16.8700      2.00000
     24     -16.8113      2.00000
     25     -16.7993      2.00000
     26     -16.7903      2.00000
     27     -16.7629      2.00000
     28     -16.7562      2.00000
     29     -16.4531      2.00000
     30     -16.4481      2.00000
     31     -16.3964      2.00000
     32     -16.3873      2.00000
     33     -16.3716      2.00000
     34     -16.3715      2.00000
     35     -16.3714      2.00000
     36     -16.3688      2.00000
     37     -16.3531      2.00000
     38     -16.3505      2.00000
     39     -16.3305      2.00000
     40     -16.3279      2.00000
     41     -16.3165      2.00000
     42     -16.3158      2.00000
     43     -16.3056      2.00000
     44     -16.2989      2.00000
     45     -16.2542      2.00000
     46     -16.2425      2.00000
     47     -16.2293      2.00000
     48     -16.2057      2.00000
     49     -16.1833      2.00000
     50     -16.1744      2.00000
     51     -16.1463      2.00000
     52     -16.1431      2.00000
     53     -16.1227      2.00000
     54     -16.1215      2.00000
     55     -16.1164      2.00000
     56     -16.1126      2.00000
     57     -16.1102      2.00000
     58     -16.1088      2.00000
     59     -16.1031      2.00000
     60     -16.1025      2.00000
[...]
    230      14.8796      0.00000
    231      15.0264      0.00000
    232      15.0812      0.00000
    233      15.1352      0.00000
    234      15.1939      0.00000
    235      15.2843      0.00000
    236      15.3245      0.00000
    237      15.3600      0.00000
    238      15.4832      0.00000
    239      15.4964      0.00000
    240      15.6884      0.00000
    241      16.0138      0.00000
    242      16.2462      0.00000
    243      16.6652      0.00000
    244      16.9133      0.00000

 soft charge-density along one line, spin component           1
         0         1         2         3         4         5         6         7         8         9
 total charge-density along one line

------------------------ aborting loop because EDIFF is reached ----------------------------------------

  FORCE on cell =-STRESS in cart. coord.  units (eV):
  Direction    XX          YY          ZZ          XY          YZ          ZX
  Alpha Z  1390.87733  1390.87733  1390.87733
  Ewald  -11991.31892-11991.31892 -7197.89142  -188.70123     0.00000     0.00000
  Hartree  2926.17274  2926.17274  5677.68016   -98.92657     0.00000     0.00000
  E(xc)   -2052.51129 -2052.51129 -2047.93795    -0.32888     0.00000     0.00000
  Local     956.70765   956.70765 -6450.60432   282.61608     0.00000     0.00000
  n-local    58.63223    58.15403   133.47762    -7.73250    -0.21074    -0.22479
  augment  2992.85419  2992.85419  2967.57464     1.82327     0.00000     0.00000
  Kinetic  5748.38417  5750.26218  5551.16128    11.15893     0.67445     0.72800
  Fock        0.00000     0.00000     0.00000     0.00000     0.00000     0.00000
  Total      30.49802    30.49802    24.33734    -0.09037     0.00000     0.00000
  in kB      87.10266    87.10266    69.50770    -0.25809     0.00000     0.00000

 VOLUME and BASIS-vectors are now :
  energy-cutoff  :      480.00
  volume of cell :      560.98
      direct lattice vectors                 reciprocal lattice vectors
     9.432027167  0.000000000  0.000000000     0.106021747  0.000000000  0.000000000
     0.000000000  9.432027167  0.000000000     0.000000000  0.106021747  0.000000000
     0.000000000  0.000000000  6.305806843     0.000000000  0.000000000  0.158583989

  length of vectors
     9.432027167  9.432027167  6.305806843     0.106021747  0.106021747  0.158583989

 FORCES acting on ions
    electron-ion (+dipol)            ewald-force                    non-local-force                 convergence-correction
   0.986E+02 -.986E+02 -.195E+03   -.105E+03 0.105E+03 0.209E+03   0.670E+01 -.670E+01 -.137E+02   -.182E-01 0.182E-01 0.197E-01
   0.512E+02 -.512E+02 -.547E+01   -.542E+02 0.542E+02 0.579E+01   0.298E+01 -.298E+01 -.319E+00   -.118E-01 0.118E-01 -.138E-02
   0.252E+02 -.809E+02 -.115E+02   -.287E+02 0.840E+02 0.114E+02   0.353E+01 -.307E+01 0.122E+00   -.210E-03 -.192E-02 -.126E-02
   -.329E+02 0.710E+02 0.106E-05   0.303E+02 -.725E+02 0.287E-13   0.253E+01 0.156E+01 0.000E+00   0.132E-01 -.152E-01 -.787E-11
   -.710E+02 0.329E+02 -.106E-05   0.725E+02 -.303E+02 0.568E-13   -.156E+01 -.253E+01 0.000E+00   0.152E-01 -.132E-01 -.685E-11
   -.986E+02 0.986E+02 0.195E+03   0.105E+03 -.105E+03 -.209E+03   -.670E+01 0.670E+01 0.137E+02   0.182E-01 -.182E-01 -.197E-01
   -.512E+02 0.512E+02 0.547E+01   0.542E+02 -.542E+02 -.579E+01   -.298E+01 0.298E+01 0.319E+00   0.118E-01 -.118E-01 0.138E-02
   0.111E+02 0.442E+02 0.110E-04   -.143E+02 -.435E+02 0.832E-15   0.307E+01 -.559E+00 -.271E-19   0.443E-01 -.465E-01 -.725E-12
   -.111E+02 -.442E+02 -.110E-04   0.143E+02 0.435E+02 0.104E-13   -.307E+01 0.559E+00 0.271E-19   -.443E-01 0.465E-01 -.360E-11
   -.442E+02 -.111E+02 -.110E-04   0.435E+02 0.143E+02 -.299E-13   0.559E+00 -.307E+01 0.000E+00   0.465E-01 -.443E-01 0.582E-11
   -.512E+02 0.512E+02 -.547E+01   0.542E+02 -.542E+02 0.579E+01   -.298E+01 0.298E+01 -.319E+00   0.118E-01 -.118E-01 -.138E-02
   -.182E+01 -.182E+01 0.291E-05   0.221E+01 0.221E+01 -.726E-14   -.377E+00 -.377E+00 0.000E+00   0.470E-02 0.470E-02 -.156E-11
   -.254E+03 -.254E+03 0.143E-06   0.275E+03 0.275E+03 -.352E-13   -.207E+02 -.207E+02 0.271E-19   0.106E-01 0.106E-01 0.447E-11
   0.252E+02 -.809E+02 0.115E+02   -.287E+02 0.840E+02 -.114E+02   0.353E+01 -.307E+01 -.122E+00   -.210E-03 -.192E-02 0.126E-02
   -.809E+02 0.252E+02 0.115E+02   0.840E+02 -.287E+02 -.114E+02   -.307E+01 0.353E+01 -.122E+00   -.192E-02 -.210E-03 0.126E-02
   0.107E+02 0.107E+02 -.138E-04   -.121E+02 -.121E+02 -.315E-13   0.141E+01 0.141E+01 0.000E+00   0.112E-01 0.112E-01 0.206E-11
   -.950E+02 -.950E+02 0.106E-04   0.998E+02 0.998E+02 -.217E-14   -.474E+01 -.474E+01 -.217E-18   0.880E-02 0.880E-02 -.468E-12
   -.986E+02 0.986E+02 -.195E+03   0.105E+03 -.105E+03 0.209E+03   -.670E+01 0.670E+01 -.137E+02   0.182E-01 -.182E-01 0.197E-01
   0.442E+02 0.111E+02 0.110E-04   -.435E+02 -.143E+02 -.196E-13   -.559E+00 0.307E+01 0.000E+00   -.465E-01 0.443E-01 0.112E-11
   -.809E+02 0.252E+02 -.115E+02   0.840E+02 -.287E+02 0.114E+02   -.307E+01 0.353E+01 0.122E+00   -.192E-02 -.210E-03 -.126E-02
   -.107E+02 -.107E+02 0.138E-04   0.121E+02 0.121E+02 -.527E-13   -.141E+01 -.141E+01 0.000E+00   -.112E-01 -.112E-01 -.278E-12
   0.986E+02 -.986E+02 0.195E+03   -.105E+03 0.105E+03 -.209E+03   0.670E+01 -.670E+01 0.137E+02   -.182E-01 0.182E-01 -.197E-01
   0.512E+02 -.512E+02 0.547E+01   -.542E+02 0.542E+02 -.579E+01   0.298E+01 -.298E+01 0.319E+00   -.118E-01 0.118E-01 0.138E-02
   0.329E+02 -.710E+02 -.106E-05   -.303E+02 0.725E+02 -.376E-14   -.253E+01 -.156E+01 0.000E+00   -.132E-01 0.152E-01 0.297E-11
   0.950E+02 0.950E+02 -.106E-04   -.998E+02 -.998E+02 -.561E-15   0.474E+01 0.474E+01 0.217E-18   -.880E-02 -.880E-02 0.853E-12
   0.254E+03 0.254E+03 -.143E-06   -.275E+03 -.275E+03 -.587E-13   0.207E+02 0.207E+02 -.271E-19   -.106E-01 -.106E-01 -.106E-11
   0.710E+02 -.329E+02 0.106E-05   -.725E+02 0.303E+02 0.240E-13   0.156E+01 0.253E+01 0.000E+00   -.152E-01 0.132E-01 -.223E-12
   -.252E+02 0.809E+02 0.115E+02   0.287E+02 -.840E+02 -.114E+02   -.353E+01 0.307E+01 -.122E+00   0.210E-03 0.192E-02 0.126E-02
   0.809E+02 -.252E+02 -.115E+02   -.840E+02 0.287E+02 0.114E+02   0.307E+01 -.353E+01 0.122E+00   0.192E-02 0.210E-03 -.126E-02
   -.252E+02 0.809E+02 -.115E+02   0.287E+02 -.840E+02 0.114E+02   -.353E+01 0.307E+01 0.122E+00   0.210E-03 0.192E-02 -.126E-02
   0.182E+01 0.182E+01 -.291E-05   -.221E+01 -.221E+01 -.286E-13   0.377E+00 0.377E+00 0.000E+00   -.470E-02 -.470E-02 0.561E-12
   0.809E+02 -.252E+02 0.115E+02   -.840E+02 0.287E+02 -.114E+02   0.307E+01 -.353E+01 -.122E+00   0.192E-02 0.210E-03 0.126E-02
   0.386E-11 -.578E-11 -.334E-12   0.426E-13 0.726E-13 -.878E-13   0.000E+00 0.000E+00 0.000E+00   -.577E-11 -.369E-11 0.178E-11
   -.119E+03 -.119E+03 -.281E+02   0.122E+03 0.122E+03 0.321E+02   -.314E+01 -.314E+01 -.394E+01   0.256E-01 0.256E-01 -.194E-01
   0.119E+03 0.119E+03 0.281E+02   -.122E+03 -.122E+03 -.321E+02   0.314E+01 0.314E+01 0.394E+01   -.256E-01 -.256E-01 0.194E-01
   0.163E-12 0.232E-12 0.121E-11   -.631E-13 0.977E-13 0.911E-13   0.000E+00 0.000E+00 0.000E+00   -.475E-11 -.330E-11 0.386E-12
   -.119E+03 -.119E+03 0.281E+02   0.122E+03 0.122E+03 -.321E+02   -.314E+01 -.314E+01 0.394E+01   0.256E-01 0.256E-01 0.194E-01
   -.287E-12 0.178E-11 0.104E-11   -.290E-12 0.130E-12 0.200E-13   0.000E+00 0.000E+00 0.000E+00   -.109E-11 0.600E-11 0.269E-11
   0.119E+03 0.119E+03 -.281E+02   -.122E+03 -.122E+03 0.321E+02   0.314E+01 0.314E+01 -.394E+01   -.256E-01 -.256E-01 -.194E-01
   0.124E+03 -.124E+03 -.738E+02   -.127E+03 0.127E+03 0.729E+02   0.346E+01 -.346E+01 0.908E+00   -.449E-01 0.449E-01 0.709E-02
   -.124E+03 0.124E+03 -.738E+02   0.127E+03 -.127E+03 0.729E+02   -.346E+01 0.346E+01 0.908E+00   0.449E-01 -.449E-01 0.709E-02
   0.185E-11 -.273E-12 -.655E-11   -.427E-13 0.823E-13 -.380E-13   0.000E+00 0.000E+00 0.000E+00   0.102E-11 0.222E-11 0.207E-11
   -.378E-12 0.168E-11 -.202E-12   0.156E-12 -.182E-12 -.143E-13   0.000E+00 0.000E+00 0.000E+00   0.841E-11 0.782E-12 -.260E-11
   0.124E+03 -.124E+03 0.738E+02   -.127E+03 0.127E+03 -.729E+02   0.346E+01 -.346E+01 -.908E+00   -.449E-01 0.449E-01 -.709E-02
   -.124E+03 0.124E+03 0.738E+02   0.127E+03 -.127E+03 -.729E+02   -.346E+01 0.346E+01 -.908E+00   0.449E-01 -.449E-01 -.709E-02
   0.177E-11 -.347E-12 0.548E-11   0.313E-12 -.111E-12 -.444E-13   0.000E+00 0.000E+00 0.000E+00   0.465E-11 0.205E-11 -.528E-13
   0.368E-11 -.607E-11 0.125E-11   0.170E-12 0.211E-12 0.622E-13   0.000E+00 0.000E+00 0.000E+00   -.133E-11 -.322E-11 -.196E-11
   0.481E-10 -.341E-10 -.985E-10   0.994E-13 0.730E-16 -.309E-12   -.133E-14 0.222E-14 0.333E-15   0.568E-11 0.727E-11 -.316E-12

 POSITION                                       TOTAL-FORCE (eV/Angst)
      0.96742      8.46461      4.57633        -0.012266      0.012266     -0.001499
      3.79582      5.63620      4.72542        -0.001599      0.001599      0.001983
      8.52031      5.62284      4.72988         0.016773      0.016977      0.001730
      6.13454      1.46120      0.00000        -0.015235      0.006714      0.000000
      7.97083      3.29748      0.00000        -0.006714      0.015235      0.000000
      8.46461      0.96742      1.72948         0.012266     -0.012266      0.001499
      5.63620      3.79582      1.58039         0.001599     -0.001599     -0.001983
      6.07365      1.49388      3.15290        -0.023549      0.022431      0.000000
      3.35837      7.93815      3.15290         0.023549     -0.022431      0.000000
      7.93815      3.35837      3.15290        -0.022431      0.023549      0.000000
      5.63620      3.79582      4.72542         0.001599     -0.001599      0.001983
      6.12370      6.12370      0.00000         0.010925      0.010925      0.000000
      7.94788      7.94788      0.00000         0.013727      0.013727      0.000000
      8.52031      5.62284      1.57593         0.016773      0.016977     -0.001730
      5.62284      8.52031      1.57593         0.016977      0.016773     -0.001730
      6.16137      6.16137      3.15290         0.008266      0.008266      0.000000
      7.96829      7.96829      3.15290         0.011160      0.011160      0.000000
      8.46461      0.96742      4.57633         0.012266     -0.012266     -0.001499
      1.49388      6.07365      3.15290         0.022431     -0.023549      0.000000
      5.62284      8.52031      4.72988         0.016977      0.016773      0.001730
      3.27066      3.27066      3.15290        -0.008266     -0.008266      0.000000
      0.96742      8.46461      1.72948        -0.012266      0.012266      0.001499
      3.79582      5.63620      1.58039        -0.001599      0.001599     -0.001983
      3.29748      7.97083      0.00000         0.015235     -0.006714      0.000000
      1.46374      1.46374      3.15290        -0.011160     -0.011160      0.000000
      1.48415      1.48415      0.00000        -0.013727     -0.013727      0.000000
      1.46120      6.13454      0.00000         0.006714     -0.015235      0.000000
      0.91172      3.80919      1.57593        -0.016773     -0.016977     -0.001730
      3.80919      0.91172      4.72988        -0.016977     -0.016773      0.001730
      0.91172      3.80919      4.72988        -0.016773     -0.016977      0.001730
      3.30833      3.30833      0.00000        -0.010925     -0.010925      0.000000
      3.80919      0.91172      1.57593        -0.016977     -0.016773     -0.001730
      4.71601      4.71601      3.15290         0.000000      0.000000      0.000000
      7.09506      7.09506      4.75113         0.001945      0.001945      0.006846
      2.33697      2.33697      1.55468        -0.001945     -0.001945     -0.006846
      0.00000      0.00000      3.15290         0.000000      0.000000      0.000000
      7.09506      7.09506      1.55468         0.001945      0.001945     -0.006846
      0.00000      4.71601      3.15290         0.000000      0.000000      0.000000
      2.33697      2.33697      4.75113        -0.001945     -0.001945      0.006846
      2.34238      7.08964      4.72473         0.012360     -0.012360     -0.015061
      7.08964      2.34238      4.72473        -0.012360      0.012360     -0.015061
      4.71601      0.00000      3.15290         0.000000      0.000000      0.000000
      0.00000      4.71601      0.00000         0.000000      0.000000      0.000000
      2.34238      7.08964      1.58108         0.012360     -0.012360      0.015061
      7.08964      2.34238      1.58108        -0.012360      0.012360      0.015061
      4.71601      0.00000      0.00000         0.000000      0.000000      0.000000
      4.71601      4.71601      0.00000         0.000000      0.000000      0.000000
    total drift:                                0.000000      0.000000      0.000000

  FREE ENERGIE OF THE ION-ELECTRON SYSTEM (eV)
  free  energy   TOTEN  =      -286.92364100 eV

  energy  without entropy=     -286.81963598  energy(sigma->0) =     -286.87163849

 d Force = 0.1396739E-02[ 0.845E-03, 0.195E-02]  d Energy = 0.1345794E-02 0.509E-04
 d Force =-0.2896444E+01[-0.289E+01,-0.290E+01]  d Ewald  =-0.2896438E+01-0.513E-05

 Quasi-Newton relaxation of ions (Broydens 2nd method)
  g(Force)  = 0.749E-03   g(Stress)= 0.000E+00

 retain information from N=  4 steps
 eigenvalues of (default step * inverse Hessian matrix)
  average eigenvalue of G=   4.3680
 eigenvalue spectrum of G is  7.7619  7.7619  0.9742  0.9742

 reached required accuracy - stopping structural energy minimisation
 writing wavefunctions