 vasp.5.4.4.18Apr17-6-g9f103f2a35 (build May 17 2017 21:50:23) complex

 executed on             LinuxIFC date 2017.11.05  18:18:28

 INCAR:
 POTCAR:    PAW_PBE O 08Apr2002
 POTCAR:    PAW_PBE Sn_d 06Sep2000
 POTCAR:    PAW_PBE F 08Apr2002

 POTCAR:    PAW_PBE O 08Apr2002
   VRHFIN =O: s2p4

   TITEL  = PAW_PBE O 08Apr2002
   POMASS =   16.000; ZVAL   =    6.000    mass and valenz
   ENMAX  =  400.000; ENMIN  =  300.000 eV

 POTCAR:    PAW_PBE Sn_d 06Sep2000
   VRHFIN =Sn: s2p2

   TITEL  = PAW_PBE Sn_d 06Sep2000
   POMASS =  118.710; ZVAL   =   14.000    mass and valenz
   ENMAX  =  241.083; ENMIN  =  180.812 eV

 POTCAR:    PAW_PBE F 08Apr2002
   VRHFIN =F: s2p5

   TITEL  = PAW_PBE F 08Apr2002
   POMASS =   18.998; ZVAL   =    7.000    mass and valenz
   ENMAX  =  400.000; ENMIN  =  300.000 eV

  PAW_PBE O 08Apr2002                   :
  PAW_PBE Sn_d 06Sep2000                :
  PAW_PBE F 08Apr2002                   :

 POSCAR: SnO2
  positions in direct lattice
  velocities in cartesian coordinates
 exchange correlation table for  LEXCH =        8
   RHO(1)=    0.500       N(1)  =     2000
   RHO(2)=  100.500       N(2)  =     4000

 VTST: version 3.1, (03/28/14)

 CHAIN: initializing optimizer

 OPT: Using VASP QUASI-newton optimizer
 CHAIN: Read ICHAIN            0

 POSCAR: SnO2
  positions in direct lattice
  velocities in cartesian coordinates

 ion  position               nearest neighbor table
   1  0.097  0.903  0.750-  39 2.04  35 2.04  47 2.04
   2  0.403  0.597  0.750-  39 2.04  32 2.04  46 2.04
   3  0.903  0.597  0.750-  33 2.04  37 2.04  42 2.04
   4  0.653  0.153  0.000-  45 2.04  44 2.04  40 2.04
   5  0.847  0.347  0.000-  42 2.04  40 2.04  44 2.04
   6  0.903  0.097  0.250-  44 2.04  35 2.04  47 2.04
   7  0.597  0.403  0.250-  44 2.04  32 2.04  46 2.04
   8  0.653  0.153  0.500-  41 2.04  40 2.04  44 2.04
   9  0.347  0.847  0.500-  41 2.04  39 2.04  43 2.04
  10  0.847  0.347  0.500-  37 2.04  40 2.04  44 2.04
  11  0.597  0.403  0.750-  40 2.04  32 2.04  46 2.04
  12  0.653  0.653  0.000-  46 2.04  36 2.04  33 2.04
  13  0.847  0.847  0.000-  47 2.04  36 2.04  33 2.04
  14  0.903  0.597  0.250-  36 2.04  37 2.04  42 2.04
  15  0.597  0.903  0.250-  36 2.04  41 2.04  45 2.04
  16  0.653  0.653  0.500-  32 2.04  33 2.04  36 2.04
  17  0.847  0.847  0.500-  35 2.04  33 2.04  36 2.04
  18  0.903  0.097  0.750-  40 2.04  35 2.04  47 2.04
  19  0.153  0.653  0.500-  37 2.04  39 2.04  43 2.04
  20  0.597  0.903  0.750-  33 2.04  41 2.04  45 2.04
  21  0.347  0.347  0.500-  32 2.04  34 2.04  38 2.04
  22  0.097  0.903  0.250-  43 2.04  35 2.04  47 2.04
  23  0.403  0.597  0.250-  43 2.04  32 2.04  46 2.04
  24  0.347  0.847  0.000-  45 2.04  43 2.04  39 2.04
  25  0.153  0.153  0.500-  35 2.04  34 2.04  38 2.04
  26  0.153  0.653  0.000-  42 2.04  39 2.04  43 2.04
  27  0.097  0.403  0.250-  34 2.04  37 2.04  42 2.04
  28  0.403  0.097  0.750-  38 2.04  41 2.04  45 2.04
  29  0.097  0.403  0.750-  38 2.04  37 2.04  42 2.04
  30  0.347  0.347  0.000-  46 2.04  38 2.04  34 2.04
  31  0.403  0.097  0.250-  34 2.04  41 2.04  45 2.04
  32  0.500  0.500  0.500-  16 2.04  21 2.04  11 2.04   2 2.04   7 2.04  23 2.04  46 3.15  46 3.15
                            36 3.69  38 3.69  39 3.69  40 3.69  43 3.69  44 3.69  33 3.69  34 3.69
  33  0.750  0.750  0.750-   3 2.04  20 2.04  13 2.04  16 2.04  17 2.04  12 2.04  36 3.15  36 3.15
                            32 3.69  37 3.69  41 3.69  42 3.69  45 3.69  46 3.69  47 3.69  35 3.69
  34  0.250  0.250  0.250-  27 2.04  31 2.04  21 2.04  30 2.04  25 2.04  48 2.04  38 3.15  38 3.15
                            32 3.69  41 3.69  42 3.69  45 3.69  46 3.69  47 3.69  35 3.69  37 3.69
  35  0.000  0.000  0.500-  17 2.04  25 2.04   1 2.04  18 2.04  22 2.04   6 2.04  47 3.15  47 3.15
                            36 3.69  38 3.69  39 3.69  40 3.69  43 3.69  44 3.69  33 3.69  34 3.69
  36  0.750  0.750  0.250-  14 2.04  15 2.04  12 2.04  13 2.04  16 2.04  17 2.04  33 3.15  33 3.15
                            35 3.69  37 3.69  41 3.69  42 3.69  45 3.69  46 3.69  47 3.69  32 3.69
  37  0.000  0.500  0.500-  10 2.04  19 2.04  14 2.04   3 2.04  27 2.04  29 2.04  42 3.15  42 3.15
                            36 3.69  38 3.69  39 3.69  40 3.69  33 3.69  43 3.69  44 3.69  34 3.69
  38  0.250  0.250  0.750-  28 2.04  29 2.04  21 2.04  25 2.04  30 2.04  48 2.04  34 3.15  34 3.15
                            37 3.69  41 3.69  42 3.69  45 3.69  46 3.69  47 3.69  32 3.69  35 3.69
  39  0.250  0.750  0.750-   1 2.04   2 2.04   9 2.04  19 2.04  24 2.04  26 2.04  43 3.15  43 3.15
                            37 3.69  41 3.69  42 3.69  32 3.69  45 3.69  46 3.69  47 3.69  35 3.69
  40  0.750  0.250  0.750-  11 2.04  18 2.04   8 2.04  10 2.04   4 2.04   5 2.04  44 3.15  44 3.15
                            37 3.69  41 3.69  42 3.69  32 3.69  45 3.69  46 3.69  47 3.69  35 3.69
  41  0.500  0.000  0.500-   8 2.04   9 2.04  15 2.04  20 2.04  28 2.04  31 2.04  45 3.15  45 3.15
                            36 3.69  38 3.69  39 3.69  40 3.69  43 3.69  44 3.69  33 3.69  34 3.69
  42  0.000  0.500  0.000-   5 2.04  26 2.04  14 2.04   3 2.04  27 2.04  29 2.04  37 3.15  37 3.15
                            36 3.69  33 3.69  38 3.69  39 3.69  40 3.69  43 3.69  44 3.69  34 3.69
  43  0.250  0.750  0.250-  22 2.04  23 2.04   9 2.04  19 2.04  24 2.04  26 2.04  39 3.15  39 3.15
                            37 3.69  32 3.69  41 3.69  42 3.69  45 3.69  46 3.69  47 3.69  35 3.69
  44  0.750  0.250  0.250-   6 2.04   7 2.04   4 2.04   5 2.04   8 2.04  10 2.04  40 3.15  40 3.15
                            37 3.69  32 3.69  41 3.69  42 3.69  45 3.69  46 3.69  47 3.69  35 3.69
  45  0.500  0.000  0.000-   4 2.04  24 2.04  20 2.04  15 2.04  28 2.04  31 2.04  41 3.15  41 3.15
                            36 3.69  38 3.69  39 3.69  40 3.69  33 3.69  43 3.69  44 3.69  34 3.69
  46  0.500  0.500  0.000-  12 2.04  30 2.04  11 2.04   2 2.04  23 2.04   7 2.04  32 3.15  32 3.15
                            34 3.69  36 3.69  38 3.69  39 3.69  40 3.69  43 3.69  44 3.69  33 3.69
  47  0.000  0.000  0.000-  13 2.04   6 2.04   1 2.04  18 2.04  22 2.04  48 2.04  35 3.15  35 3.15
                            36 3.69  38 3.69  39 3.69  40 3.69  43 3.69  44 3.69  34 3.69  33 3.69
  48  0.143  0.163  0.000-  47 2.04  38 2.04  34 2.04

  LATTYP: Found a simple tetragonal cell.
 ALAT       =     9.4320271667
 C/A-ratio  =     0.6685526591

  Lattice vectors:

 A1 = (   9.4320271667,   0.0000000000,   0.0000000000)
 A2 = (   0.0000000000,   9.4320271667,   0.0000000000)
 A3 = (   0.0000000000,   0.0000000000,   6.3058068432)

Analysis of symmetry for initial positions (statically):
 Subroutine PRICEL returns:
 Original cell was already a primitive cell.

 Routine SETGRP: Setting up the symmetry group for a
 simple tetragonal supercell.

 Subroutine GETGRP returns: Found  2 space group operations
 (whereof  2 operations were pure point group operations)
 out of a pool of 16 trial point group operations.

The static configuration has the point symmetry C_1h.

Analysis of symmetry for dynamics (positions and initial velocities):
 Subroutine PRICEL returns:
 Original cell was already a primitive cell.

[...]

The dynamic configuration has the point symmetry C_1h.

Analysis of constrained symmetry for selective dynamics:
 Subroutine PRICEL returns:
 Original cell was already a primitive cell.

 Routine SETGRP: Setting up the symmetry group for a
 simple tetragonal supercell.

 Subroutine GETGRP returns: Found  2 space group operations
 (whereof  2 operations were pure point group operations)
 out of a pool of 16 trial point group operations.

The constrained configuration has the point symmetry C_1h.

 Subroutine INISYM returns: Found  2 space group operations
 (whereof  2 operations are pure point group operations),
 and found     1 'primitive' translations

 KPOINTS: Automatic mesh

Automatic generation of k-mesh.
Space group operators:
 irot       det(A)        alpha          n_x          n_y          n_z        tau_x        tau_y        tau_z
    1     1.000000     0.000000     1.000000     0.000000     0.000000     0.000000     0.000000     0.000000
    2    -1.000000   180.000000     0.000000     0.000000     1.000000     0.000000     0.000000     0.000000

 Subroutine IBZKPT returns following result:

 Found     10 irreducible k-points:

 Following reciprocal coordinates:
            Coordinates               Weight
  0.000000  0.000000  0.125000      2.000000
  0.333333  0.000000  0.125000      4.000000
  0.000000  0.333333  0.125000      4.000000
  0.333333  0.333333  0.125000      4.000000
 -0.333333  0.333333  0.125000      4.000000
  0.000000  0.000000  0.375000      2.000000
  0.333333  0.000000  0.375000      4.000000
  0.000000  0.333333  0.375000      4.000000
  0.333333  0.333333  0.375000      4.000000
 -0.333333  0.333333  0.375000      4.000000

 Following cartesian coordinates:
            Coordinates               Weight
  0.000000  0.000000  0.019823      2.000000
  0.035341  0.000000  0.019823      4.000000
  0.000000  0.035341  0.019823      4.000000
  0.035341  0.035341  0.019823      4.000000
 -0.035341  0.035341  0.019823      4.000000
  0.000000  0.000000  0.059469      2.000000
  0.035341  0.000000  0.059469      4.000000
  0.000000  0.035341  0.059469      4.000000
  0.035341  0.035341  0.059469      4.000000
 -0.035341  0.035341  0.059469      4.000000

 SYSTEM =  SnO2
 POSCAR =  SnO2

 Startparameter for this run:
   NWRITE =      2    write-flag & timer
   PREC   = accura    normal or accurate (medium, high low for compatibility)
   ISTART =      0    job   : 0-new  1-cont  2-samecut
   ICHARG =      2    charge: 1-file 2-atom 10-const
   ISPIN  =      1    spin polarized calculation?
   LNONCOLLINEAR =      F non collinear calculations
   LSORBIT =      F    spin-orbit coupling
   INIWAV =      1    electr: 0-lowe 1-rand  2-diag
   LASPH  =      F    aspherical Exc in radial PAW
   METAGGA=      F    non-selfconsistent MetaGGA calc.

 Electronic Relaxation 1
   ENCUT  =  480.0 eV  35.28 Ry    5.94 a.u.  16.85 16.85 11.26*2*pi/ulx,y,z
   ENINI  =  480.0     initial cutoff
   ENAUG  =  613.6 eV  augmentation charge cutoff
   NELM   =     60;   NELMIN=  2; NELMDL= -5     # of ELM steps
   EDIFF  = 0.1E-03   stopping-criterion for ELM
   LREAL  =      F    real-space projection
   NLSPLINE    = F    spline interpolate recip. space projectors
   LCOMPAT=      F    compatible to vasp.4.4
   GGA_COMPAT  = T    GGA compatible to vasp.4.4-vasp.4.6
   LMAXPAW     = -100 max onsite density
   LMAXMIX     =    4 max onsite mixed and CHGCAR
   VOSKOWN=      0    Vosko Wilk Nusair interpolation
   ROPT   =    0.00000   0.00000   0.00000
 Ionic relaxation
   EDIFFG = -.1E-01   stopping-criterion for IOM
   NSW    =    100    number of steps for IOM
   NBLOCK =      1;   KBLOCK =    100    inner block; outer block
   IBRION =      1    ionic relax: 0-MD 1-quasi-New 2-CG
   NFREE  =      0    steps in history (QN), initial steepest desc. (CG)
   ISIF   =      2    stress and relaxation
   IWAVPR =     11    prediction:  0-non 1-charg 2-wave 3-comb
   ISYM   =      2    0-nonsym 1-usesym 2-fastsym
[...]
      26 -67.6382      27 -67.7785      28 -67.7779      29 -67.7785      30 -68.0533
      31 -67.7779      32 -98.7828      33 -98.8249      34 -99.2144      35 -98.9000
      36 -98.8249      37 -98.8224      38 -99.2144      39 -98.7647      40 -98.7653
      41 -98.8226      42 -98.7874      43 -98.7647      44 -98.7653      45 -98.7875
      46 -98.8110      47 -99.1066      48 -74.0769

 E-fermi :   9.2474     XC(G=0): -11.3585     alpha+bet :-14.5614

[...]

 k-point    10 :      -0.3333    0.3333    0.3750
  band No.  band energies     occupation
      1     -18.3477      2.00000
      2     -16.7738      2.00000
      3     -16.7545      2.00000
      4     -16.6345      2.00000
      5     -16.6052      2.00000
      6     -16.5731      2.00000
      7     -16.4602      2.00000
      8     -16.4418      2.00000
      9     -16.4303      2.00000
     10     -16.3971      2.00000
     11     -16.3879      2.00000
     12     -16.3818      2.00000
     13     -16.3521      2.00000
     14     -16.2990      2.00000
     15     -16.2589      2.00000
     16     -16.2486      2.00000
     17     -16.2454      2.00000
     18     -16.2161      2.00000
     19     -16.1872      2.00000
     20     -16.1691      2.00000
     21     -16.1193      2.00000
     22     -16.1061      2.00000
     23     -16.0635      2.00000
     24     -16.0434      2.00000
     25     -16.0225      2.00000
     26     -16.0098      2.00000
     27     -16.0062      2.00000
     28     -15.9801      2.00000
     29     -15.9655      2.00000
     30     -15.9411      2.00000
     31     -15.9181      2.00000
     32     -15.9073      2.00000
     33     -15.8824      2.00000
     34     -15.8469      2.00000
     35     -15.7714      2.00000
     36     -15.7417      2.00000
     37     -15.7366      2.00000
     38     -15.6684      2.00000
     39     -15.6664      2.00000
     40     -15.6596      2.00000
     41     -15.6392      2.00000
     42     -15.6073      2.00000
     43     -15.4441      2.00000
     44     -15.4302      2.00000
     45     -15.4093      2.00000
     46     -15.4038      2.00000
     47     -15.4006      2.00000
     48     -15.3956      2.00000
     49     -15.3806      2.00000
     50     -15.3625      2.00000
     51     -15.3615      2.00000
     52     -15.3589      2.00000
     53     -15.3549      2.00000
     54     -15.3440      2.00000
     55     -15.3431      2.00000
     56     -15.3336      2.00000
     57     -15.3278      2.00000
     58     -15.3227      2.00000
     59     -15.3211      2.00000
     60     -15.3188      2.00000
[...]
    238      15.5684      0.00000
    239      15.6362      0.00000
    240      15.6854      0.00000
    241      15.7746      0.00000
    242      15.8048      0.00000
    243      15.8489      0.00000
    244      15.9239      0.00000
    245      16.0198      0.00000
    246      16.0436      0.00000
    247      16.0802      0.00000
    248      16.2014      0.00000
    249      17.0586      0.00000
    250      17.1628      0.00000
    251      17.4178      0.00000
    252      17.5197      0.00000

 soft charge-density along one line, spin component           1
         0         1         2         3         4         5         6         7         8         9
 total charge-density along one line

------------------------ aborting loop because EDIFF is reached ----------------------------------------

  FORCE on cell =-STRESS in cart. coord.  units (eV):
  Direction    XX          YY          ZZ          XY          YZ          ZX
  Alpha Z  1503.67098  1503.67098  1503.67098
  Ewald  -12999.04620-13000.97208 -7811.46916    74.15894    -0.00000     0.00000
  Hartree  2791.86222  2791.41643  5698.74583    40.43566    -0.00000    -0.00000
  E(xc)   -2130.06811 -2130.07167 -2124.86319    -0.06208    -0.00000    -0.00000
  Local    1699.60308  1701.84196 -6241.09102  -108.81079    -0.00000    -0.00000
  n-local    90.16039    89.96712   168.77155    -2.52844    -0.09775    -0.03884
  augment  3185.91625  3185.94482  3158.09901    -0.80015     0.00000     0.00000
  Kinetic  5868.21968  5868.67291  5661.83134     2.79993     0.43484     0.18565
  Fock        0.00000     0.00000     0.00000     0.00000     0.00000     0.00000
  Total      10.31828    10.47046    13.69533     5.19307     0.00000     0.00000
  in kB      29.46912    29.90375    39.11401    14.83146     0.00000     0.00000

 VOLUME and BASIS-vectors are now :
  energy-cutoff  :      480.00
  volume of cell :      560.98
      direct lattice vectors                 reciprocal lattice vectors
     9.432027167  0.000000000  0.000000000     0.106021747  0.000000000  0.000000000
     0.000000000  9.432027167  0.000000000     0.000000000  0.106021747  0.000000000
     0.000000000  0.000000000  6.305806843     0.000000000  0.000000000  0.158583989

  length of vectors
     9.432027167  9.432027167  6.305806843     0.106021747  0.106021747  0.158583989

 FORCES acting on ions
    electron-ion (+dipol)            ewald-force                    non-local-force                 convergence-correction
   -.503E+02 0.292E+02 0.759E+01   0.547E+02 -.308E+02 -.835E+01   -.443E+01 0.162E+01 0.754E+00   0.514E-02 0.584E-02 0.252E-02
   0.461E+02 -.418E+02 -.199E+01   -.490E+02 0.438E+02 0.189E+01   0.298E+01 -.205E+01 0.972E-01   0.317E-03 -.161E-02 0.438E-03
   0.317E+02 -.370E+02 0.207E+01   -.342E+02 0.396E+02 -.217E+01   0.246E+01 -.261E+01 0.997E-01   0.690E-02 0.390E-02 0.253E-02
   0.362E+02 0.384E+02 0.407E-06   -.384E+02 -.407E+02 0.340E-15   0.224E+01 0.234E+01 0.200E-19   0.146E-02 0.143E-03 -.409E-10
   -.419E+02 -.322E+02 0.107E-05   0.445E+02 0.343E+02 0.594E-16   -.259E+01 -.209E+01 -.223E-19   0.264E-02 0.101E-02 0.350E-11
   0.304E+02 -.490E+02 -.840E+01   -.322E+02 0.532E+02 0.923E+01   0.179E+01 -.419E+01 -.831E+00   -.702E-02 -.785E-02 0.201E-02
   -.422E+02 0.457E+02 0.234E+01   0.443E+02 -.486E+02 -.226E+01   -.208E+01 0.294E+01 -.903E-01   -.170E-02 -.575E-02 0.116E-02
   0.319E+02 0.410E+02 -.714E-06   -.341E+02 -.433E+02 -.349E-14   0.220E+01 0.227E+01 -.210E-18   -.123E-04 -.988E-04 0.217E-12
   -.307E+02 -.420E+02 -.923E-06   0.327E+02 0.447E+02 0.103E-13   -.206E+01 -.261E+01 -.151E-19   0.616E-02 -.169E-02 -.471E-11
   -.429E+02 -.301E+02 -.813E-06   0.456E+02 0.321E+02 0.377E-14   -.271E+01 -.201E+01 -.209E-20   -.861E-03 0.573E-02 -.215E-11
   -.422E+02 0.457E+02 -.234E+01   0.443E+02 -.486E+02 0.226E+01   -.208E+01 0.294E+01 0.903E-01   -.170E-02 -.575E-02 -.116E-02
   0.337E+02 0.335E+02 0.208E-06   -.355E+02 -.353E+02 -.158E-13   0.178E+01 0.177E+01 0.186E-18   0.395E-03 -.509E-02 0.735E-11
   -.324E+02 -.318E+02 -.990E-06   0.324E+02 0.317E+02 -.429E-13   0.287E-01 0.110E+00 0.661E-19   -.113E-02 -.161E-02 0.952E-13
   0.317E+02 -.370E+02 -.207E+01   -.342E+02 0.396E+02 0.217E+01   0.246E+01 -.261E+01 -.997E-01   0.690E-02 0.390E-02 -.253E-02
   -.377E+02 0.312E+02 -.257E+01   0.403E+02 -.336E+02 0.270E+01   -.263E+01 0.240E+01 -.138E+00   0.108E-02 0.235E-02 -.620E-03
   0.321E+02 0.318E+02 0.387E-06   -.340E+02 -.337E+02 0.489E-14   0.188E+01 0.190E+01 0.410E-18   0.852E-03 -.330E-02 0.228E-11
   -.459E+02 -.453E+02 0.800E-06   0.486E+02 0.479E+02 0.219E-13   -.273E+01 -.258E+01 -.601E-21   0.156E-02 -.344E-02 -.625E-11
   0.304E+02 -.490E+02 0.840E+01   -.322E+02 0.532E+02 -.923E+01   0.179E+01 -.419E+01 0.831E+00   -.702E-02 -.785E-02 -.201E-02
   0.417E+02 0.310E+02 -.888E-06   -.442E+02 -.330E+02 -.732E-14   0.245E+01 0.204E+01 0.395E-19   0.326E-02 0.516E-02 -.464E-12
   -.377E+02 0.312E+02 0.257E+01   0.403E+02 -.336E+02 -.270E+01   -.263E+01 0.240E+01 0.138E+00   0.108E-02 0.235E-02 0.620E-03
   -.396E+02 -.385E+02 0.906E-06   0.438E+02 0.426E+02 -.235E-13   -.424E+01 -.408E+01 -.886E-19   -.347E-02 -.559E-02 -.863E-11
   -.503E+02 0.292E+02 -.759E+01   0.547E+02 -.308E+02 0.835E+01   -.443E+01 0.162E+01 -.754E+00   0.514E-02 0.584E-02 -.252E-02
   0.461E+02 -.418E+02 0.199E+01   -.490E+02 0.438E+02 -.189E+01   0.298E+01 -.205E+01 -.972E-01   0.317E-03 -.161E-02 -.438E-03
   -.330E+02 -.411E+02 0.931E-06   0.352E+02 0.435E+02 -.186E-13   -.224E+01 -.243E+01 0.263E-18   0.241E-02 0.135E-02 -.146E-11
   0.577E+02 0.564E+02 0.126E-05   -.617E+02 -.602E+02 0.256E-13   0.395E+01 0.376E+01 -.418E-18   0.409E-03 -.247E-02 -.254E-11
   0.391E+02 0.355E+02 0.317E-06   -.416E+02 -.377E+02 -.226E-13   0.244E+01 0.220E+01 0.517E-19   0.884E-02 -.416E-02 0.154E-10
   -.199E+02 0.369E+02 0.429E+01   0.202E+02 -.387E+02 -.446E+01   -.278E+00 0.181E+01 0.175E+00   0.338E-02 0.354E-02 0.246E-02
   0.379E+02 -.191E+02 -.495E+01   -.399E+02 0.192E+02 0.516E+01   0.197E+01 -.119E+00 -.216E+00   -.805E-02 -.535E-02 0.189E-02
   -.199E+02 0.369E+02 -.429E+01   0.202E+02 -.387E+02 0.446E+01   -.278E+00 0.181E+01 -.175E+00   0.338E-02 0.354E-02 -.246E-02
   -.402E+02 -.393E+02 -.102E-05   0.443E+02 0.434E+02 0.305E-14   -.416E+01 -.410E+01 -.192E-18   -.156E-02 -.196E-02 0.237E-11
   0.379E+02 -.191E+02 0.495E+01   -.399E+02 0.192E+02 -.516E+01   0.197E+01 -.119E+00 0.216E+00   -.805E-02 -.535E-02 -.189E-02
   -.118E+02 -.120E+02 0.196E-05   0.120E+02 0.123E+02 0.641E-14   -.244E+00 -.260E+00 -.225E-19   -.404E-02 -.324E-02 -.176E-10
   -.770E+01 -.892E+01 0.783E+01   0.759E+01 0.878E+01 -.795E+01   0.109E+00 0.136E+00 0.117E+00   0.303E-02 0.348E-02 0.137E-02
   0.189E+02 0.200E+02 0.348E+02   -.164E+02 -.175E+02 -.307E+02   -.250E+01 -.249E+01 -.407E+01   -.495E-02 -.388E-04 0.322E-02
   -.852E+01 -.806E+01 0.205E-05   0.807E+01 0.762E+01 0.159E-13   0.453E+00 0.439E+00 0.951E-19   0.217E-02 0.205E-02 0.383E-12
   -.770E+01 -.892E+01 -.783E+01   0.759E+01 0.878E+01 0.795E+01   0.109E+00 0.136E+00 -.117E+00   0.303E-02 0.348E-02 -.137E-02
   -.682E+01 0.374E+01 -.193E-05   0.606E+01 -.312E+01 -.143E-14   0.749E+00 -.625E+00 -.643E-19   0.391E-02 -.322E-03 0.601E-11
   0.189E+02 0.200E+02 -.348E+02   -.164E+02 -.175E+02 0.307E+02   -.250E+01 -.249E+01 0.407E+01   -.495E-02 -.388E-04 -.322E-02
   0.124E+02 -.815E+01 0.493E+01   -.121E+02 0.798E+01 -.481E+01   -.357E+00 0.167E+00 -.116E+00   0.312E-03 0.177E-02 0.371E-03
   -.861E+01 0.120E+02 0.478E+01   0.843E+01 -.116E+02 -.467E+01   0.171E+00 -.350E+00 -.107E+00   -.860E-03 -.400E-02 -.841E-03
   0.276E+01 -.774E+01 -.208E-05   -.214E+01 0.696E+01 -.516E-13   -.616E+00 0.781E+00 -.349E-18   -.342E-02 -.569E-03 0.319E-11
   -.558E+01 0.369E+01 -.105E-05   0.511E+01 -.337E+01 -.512E-13   0.460E+00 -.326E+00 0.187E-19   0.391E-02 0.594E-03 0.148E-10
   0.124E+02 -.815E+01 -.493E+01   -.121E+02 0.798E+01 0.481E+01   -.357E+00 0.167E+00 0.116E+00   0.312E-03 0.177E-02 -.371E-03
   -.861E+01 0.120E+02 -.478E+01   0.843E+01 -.116E+02 0.467E+01   0.171E+00 -.350E+00 0.107E+00   -.860E-03 -.400E-02 0.841E-03
   0.311E+01 -.698E+01 -.108E-05   -.281E+01 0.650E+01 -.506E-14   -.301E+00 0.478E+00 -.763E-19   -.240E-02 -.171E-02 -.151E-10
   0.888E+01 0.889E+01 0.224E-05   -.749E+01 -.751E+01 0.131E-14   -.139E+01 -.138E+01 0.785E-18   -.211E-02 0.223E-03 0.904E-11
   -.881E+01 -.812E+01 -.113E-06   0.472E+01 0.399E+01 0.364E-13   0.410E+01 0.412E+01 -.543E-19   -.238E-02 0.263E-02 0.961E-12
   0.415E+02 0.402E+02 -.131E-05   -.447E+02 -.431E+02 -.155E-14   0.315E+01 0.283E+01 -.177E-18   -.368E-01 0.377E-01 -.468E-10
   0.302E+01 0.288E+01 -.359E-06   0.384E-12 -.995E-13 -.113E-12   -.299E+01 -.290E+01 0.144E-16   -.251E-01 0.139E-01 -.616E-10

 POSITION                                       TOTAL-FORCE (eV/Angst)
      0.92609      8.54293      4.74970        -0.005700     -0.006672     -0.003011
      3.79588      5.62842      4.73061        -0.001698      0.001187      0.000633
      8.50922      5.62839      4.72577        -0.001825     -0.001671     -0.001754
      6.15555      1.43531     -0.00000         0.001073     -0.000298     -0.000000
      7.99401      3.27266     -0.00000        -0.002547     -0.000652     -0.000000
      8.53217      0.92319      1.55830         0.006867      0.005508     -0.002002
      5.62709      3.80020      1.57429         0.001454      0.002914     -0.000324
      6.14779      1.44189      3.15290         0.004578     -0.004349     -0.000000
      3.26228      7.99816      3.15290        -0.002564      0.000524     -0.000000
      7.99681      3.26392      3.15290        -0.001247     -0.002159     -0.000000
      5.62709      3.80020      4.73152         0.001454      0.002914      0.000324
      6.14961      6.15408     -0.00000        -0.000849      0.003522     -0.000000
      7.94166      7.94319     -0.00000         0.000796      0.001691     -0.000000
      8.50922      5.62839      1.58004        -0.001825     -0.001671      0.001754
      5.62579      8.51454      1.58134         0.001340      0.000278     -0.000815
      6.15842      6.16130      3.15290        -0.001413      0.003641     -0.000000
      7.99400      7.99187      3.15290        -0.003486      0.004982     -0.000000
      8.53217      0.92319      4.74751         0.006867      0.005508      0.002002
      1.43360      6.15861      3.15290        -0.000509     -0.007626     -0.000000
      5.62579      8.51454      4.72447         0.001340      0.000278      0.000815
      3.32789      3.32715      3.15290        -0.004949     -0.001242     -0.000000
      0.92609      8.54293      1.55610        -0.005700     -0.006672      0.003011
      3.79588      5.62842      1.57520        -0.001698      0.001187     -0.000633
      3.27483      7.99214     -0.00000        -0.006209      0.002686     -0.000000
      1.46395      1.47415      3.15290         0.006032     -0.002228     -0.000000
      1.43038      6.16236     -0.00000        -0.004431     -0.000338     -0.000000
      0.92290      3.77761      1.56440        -0.002268     -0.004525     -0.001316
      3.76670      0.92225      4.74271         0.007432      0.003828     -0.001428
      0.92290      3.77761      4.74141        -0.002268     -0.004525      0.001316
      3.25657      3.25886     -0.00000        -0.000641     -0.000754     -0.000000
      3.76670      0.92225      1.56309         0.007432      0.003828      0.001428
      4.74733      4.74936      3.15290         0.003973      0.005925     -0.000000
      7.05624      7.05995      4.71916         0.001047      0.001692     -0.002275
      2.42362      2.42866      1.63009         0.004076      0.003619     -0.006158
      0.01028      0.01205      3.15290        -0.001213      0.000428     -0.000000
      7.05624      7.05995      1.58665         0.001047      0.001692      0.002275
     -0.00444      4.71324      3.15290        -0.002222     -0.003596     -0.000000
      2.42362      2.42866      4.67572         0.004076      0.003619      0.006158
      2.35875      7.07364      4.73120        -0.002813     -0.001828      0.001245
      7.06974      2.36114      4.73085        -0.002229      0.000463      0.003774
      4.70644      0.00030      3.15290         0.000512     -0.003098     -0.000000
     -0.01074      4.72383     -0.00000        -0.004342     -0.000246     -0.000000
      2.35875      7.07364      1.57461        -0.002813     -0.001828     -0.001245
      7.06974      2.36114      1.57496        -0.002229      0.000463     -0.003774
      4.71984     -0.00800     -0.00000        -0.001248     -0.001747     -0.000000
      4.72357      4.72671     -0.00000        -0.000012      0.002612     -0.000000
     -0.10816     -0.10286     -0.00000         0.005799      0.000776     -0.000000
      1.41040      1.42683     -0.00000         0.003753     -0.008039     -0.000000
    total drift:                                0.005956      0.000060     -0.000000

  FREE ENERGIE OF THE ION-ELECTRON SYSTEM (eV)
  free  energy   TOTEN  =      -311.20931972 eV

  energy  without entropy=     -311.20910891  energy(sigma->0) =     -311.20921431

 d Force = 0.1003478E-03[ 0.830E-04, 0.118E-03]  d Energy = 0.1078585E-03-0.751E-05
 d Force = 0.2968650E-01[ 0.301E-01, 0.293E-01]  d Ewald  = 0.2968885E-01-0.235E-05

 stress matrix after NEB project (eV)
     10.31828      5.19307      0.00000
      5.19307     10.47046      0.00000
      0.00000      0.00000     13.69533
  FORCES: max atom, RMS     0.009278    0.005307
  FORCE total and by dimension    0.036767    0.008039
  Stress total and by dimension   21.391483   13.695331
 Quasi-Newton relaxation of ions (Broydens 2nd method)
  g(Force)  = 0.652E-04   g(Stress)= 0.000E+00

 retain information from N=  4 steps
 eigenvalues of (default step * inverse Hessian matrix)
  average eigenvalue of G=   3.9412
 eigenvalue spectrum of G is  7.1108  7.1108  0.7716  0.7716

 reached required accuracy - stopping structural energy minimisation
 writing wavefunctions