 vasp.5.4.1 05Feb16 (build Dec 31 2016 05:41:53) complex

 executed on           IFC91_ompi date 2017.08.16  00:47:00

 INCAR:
 POTCAR:    PAW_PBE O 08Apr2002
 POTCAR:    PAW_PBE Sn_d 06Sep2000
 POTCAR:    PAW_PBE O 08Apr2002
   VRHFIN =O: s2p4

   TITEL  = PAW_PBE O 08Apr2002
   POMASS =   16.000; ZVAL   =    6.000    mass and valenz
   ENMAX  =  400.000; ENMIN  =  300.000 eV

 POTCAR:    PAW_PBE Sn_d 06Sep2000
   VRHFIN =Sn: s2p2

   TITEL  = PAW_PBE Sn_d 06Sep2000
   POMASS =  118.710; ZVAL   =   14.000    mass and valenz
   ENMAX  =  241.083; ENMIN  =  180.812 eV

  PAW_PBE O 08Apr2002                   :
  PAW_PBE Sn_d 06Sep2000                :

 POSCAR: SnO2
  positions in direct lattice
  velocities in cartesian coordinates
 exchange correlation table for  LEXCH =        8
   RHO(1)=    0.500       N(1)  =     2000
   RHO(2)=  100.500       N(2)  =     4000

 ion  position               nearest neighbor table
   1  0.097  0.903  0.750-  39 2.04  35 2.04  47 2.04
   2  0.403  0.597  0.750-  39 2.04  32 2.04  46 2.04
   3  0.903  0.597  0.750-  33 2.04  37 2.04  42 2.04
   4  0.653  0.153  0.000-  45 2.04  44 2.04  40 2.04
   5  0.847  0.347  0.000-  42 2.04  40 2.04  44 2.04
   6  0.903  0.097  0.250-  44 2.04  35 2.04  47 2.04
   7  0.597  0.403  0.250-  44 2.04  32 2.04  46 2.04
   8  0.653  0.153  0.500-  41 2.04  40 2.04  44 2.04
   9  0.347  0.847  0.500-  41 2.04  39 2.04  43 2.04
  10  0.847  0.347  0.500-  37 2.04  40 2.04  44 2.04
  11  0.597  0.403  0.750-  40 2.04  32 2.04  46 2.04
  12  0.653  0.653  0.000-  46 2.04  36 2.04  33 2.04
  13  0.847  0.847  0.000-  47 2.04  36 2.04  33 2.04
  14  0.903  0.597  0.250-  36 2.04  37 2.04  42 2.04
  15  0.597  0.903  0.250-  36 2.04  41 2.04  45 2.04
  16  0.653  0.653  0.500-  32 2.04  33 2.04  36 2.04
  17  0.847  0.847  0.500-  35 2.04  33 2.04  36 2.04
  18  0.903  0.097  0.750-  40 2.04  35 2.04  47 2.04
  19  0.153  0.653  0.500-  37 2.04  39 2.04  43 2.04
  20  0.597  0.903  0.750-  33 2.04  41 2.04  45 2.04
  21  0.347  0.347  0.500-  32 2.04  34 2.04  38 2.04
  22  0.097  0.903  0.250-  43 2.04  35 2.04  47 2.04
  23  0.403  0.597  0.250-  43 2.04  32 2.04  46 2.04
  24  0.347  0.847  0.000-  45 2.04  43 2.04  39 2.04
  25  0.153  0.153  0.500-  35 2.04  34 2.04  38 2.04
  26  0.153  0.653  0.000-  42 2.04  39 2.04  43 2.04
  27  0.097  0.403  0.250-  34 2.04  37 2.04  42 2.04
  28  0.403  0.097  0.750-  38 2.04  41 2.04  45 2.04
  29  0.097  0.403  0.750-  38 2.04  37 2.04  42 2.04
  30  0.347  0.347  0.000-  46 2.04  38 2.04  34 2.04
  31  0.403  0.097  0.250-  34 2.04  41 2.04  45 2.04
  32  0.500  0.500  0.500-  16 2.04  21 2.04  11 2.04   2 2.04   7 2.04  23 2.04  46 3.15  46 3.15
                            36 3.69  38 3.69  39 3.69  40 3.69  43 3.69  44 3.69  33 3.69  34 3.69
  33  0.750  0.750  0.750-   3 2.04  20 2.04  13 2.04  16 2.04  17 2.04  12 2.04  36 3.15  36 3.15
                            32 3.69  37 3.69  41 3.69  42 3.69  45 3.69  46 3.69  47 3.69  35 3.69
  34  0.250  0.250  0.250-  27 2.04  31 2.04  21 2.04  30 2.04  25 2.04  38 3.15  38 3.15  37 3.69
                            32 3.69  41 3.69  42 3.69  45 3.69  46 3.69  47 3.69  35 3.69
  35  0.000  0.000  0.500-  17 2.04  25 2.04   1 2.04  18 2.04  22 2.04   6 2.04  47 3.15  47 3.15
                            36 3.69  38 3.69  39 3.69  40 3.69  43 3.69  44 3.69  33 3.69  34 3.69
  36  0.750  0.750  0.250-  14 2.04  15 2.04  12 2.04  13 2.04  16 2.04  17 2.04  33 3.15  33 3.15
                            35 3.69  37 3.69  41 3.69  42 3.69  45 3.69  46 3.69  47 3.69  32 3.69
  37  0.000  0.500  0.500-  10 2.04  19 2.04  14 2.04   3 2.04  27 2.04  29 2.04  42 3.15  42 3.15
                            36 3.69  38 3.69  39 3.69  40 3.69  33 3.69  43 3.69  44 3.69  34 3.69
  38  0.250  0.250  0.750-  28 2.04  29 2.04  21 2.04  25 2.04  30 2.04  34 3.15  34 3.15  35 3.69
                            37 3.69  41 3.69  42 3.69  45 3.69  46 3.69  47 3.69  32 3.69
  39  0.250  0.750  0.750-   1 2.04   2 2.04   9 2.04  19 2.04  24 2.04  26 2.04  43 3.15  43 3.15
                            37 3.69  41 3.69  42 3.69  32 3.69  45 3.69  46 3.69  47 3.69  35 3.69
  40  0.750  0.250  0.750-  11 2.04  18 2.04   8 2.04  10 2.04   4 2.04   5 2.04  44 3.15  44 3.15
                            37 3.69  41 3.69  42 3.69  32 3.69  45 3.69  46 3.69  47 3.69  35 3.69
  41  0.500  0.000  0.500-   8 2.04   9 2.04  15 2.04  20 2.04  28 2.04  31 2.04  45 3.15  45 3.15
                            36 3.69  38 3.69  39 3.69  40 3.69  43 3.69  44 3.69  33 3.69  34 3.69
  42  0.000  0.500  0.000-   5 2.04  26 2.04  14 2.04   3 2.04  27 2.04  29 2.04  37 3.15  37 3.15
                            36 3.69  33 3.69  38 3.69  39 3.69  40 3.69  43 3.69  44 3.69  34 3.69
  43  0.250  0.750  0.250-  22 2.04  23 2.04   9 2.04  19 2.04  24 2.04  26 2.04  39 3.15  39 3.15
                            37 3.69  32 3.69  41 3.69  42 3.69  45 3.69  46 3.69  47 3.69  35 3.69
  44  0.750  0.250  0.250-   6 2.04   7 2.04   4 2.04   5 2.04   8 2.04  10 2.04  40 3.15  40 3.15
                            37 3.69  32 3.69  41 3.69  42 3.69  45 3.69  46 3.69  47 3.69  35 3.69
  45  0.500  0.000  0.000-   4 2.04  24 2.04  20 2.04  15 2.04  28 2.04  31 2.04  41 3.15  41 3.15
                            36 3.69  38 3.69  39 3.69  40 3.69  33 3.69  43 3.69  44 3.69  34 3.69
  46  0.500  0.500  0.000-  12 2.04  30 2.04  11 2.04   2 2.04  23 2.04   7 2.04  32 3.15  32 3.15
                            34 3.69  36 3.69  38 3.69  39 3.69  40 3.69  43 3.69  44 3.69  33 3.69
  47  0.000  0.000  0.000-  13 2.04   6 2.04   1 2.04  18 2.04  22 2.04  35 3.15  35 3.15  33 3.69
                            36 3.69  38 3.69  39 3.69  40 3.69  43 3.69  44 3.69  34 3.69

  LATTYP: Found a simple tetragonal cell.
 ALAT       =     9.4320271667
 C/A-ratio  =     0.6685526591

  Lattice vectors:

 A1 = (   9.4320271667,   0.0000000000,   0.0000000000)
 A2 = (   0.0000000000,   9.4320271667,   0.0000000000)
 A3 = (   0.0000000000,   0.0000000000,   6.3058068432)

Analysis of symmetry for initial positions (statically):
 Subroutine PRICEL returns:
 Original cell was already a primitive cell.

 Routine SETGRP: Setting up the symmetry group for a
 simple tetragonal supercell.

 Subroutine GETGRP returns: Found  4 space group operations
 (whereof  4 operations were pure point group operations)
 out of a pool of 16 trial point group operations.

The static configuration has the point symmetry C_2v.

Analysis of symmetry for dynamics (positions and initial velocities):
 Subroutine PRICEL returns:
 Original cell was already a primitive cell.

[...]

The dynamic configuration has the point symmetry C_2v.

Analysis of constrained symmetry for selective dynamics:
 Subroutine PRICEL returns:
 Original cell was already a primitive cell.

 Routine SETGRP: Setting up the symmetry group for a
 simple tetragonal supercell.

 Subroutine GETGRP returns: Found  4 space group operations
 (whereof  4 operations were pure point group operations)
 out of a pool of 16 trial point group operations.

The constrained configuration has the point symmetry C_2v.

 Subroutine INISYM returns: Found  4 space group operations
 (whereof  4 operations are pure point group operations),
 and found     1 'primitive' translations

 KPOINTS: Automatic mesh

Automatic generation of k-mesh.
Space group operators:
 irot       det(A)        alpha          n_x          n_y          n_z        tau_x        tau_y        tau_z
    1     1.000000     0.000000     1.000000     0.000000     0.000000     0.000000     0.000000     0.000000
    2    -1.000000   180.000000     0.000000     0.000000     1.000000     0.000000     0.000000     0.000000
    3     1.000000   180.000000     0.707107     0.707107     0.000000     0.000000     0.000000     0.000000
    4    -1.000000   180.000000     0.707107    -0.707107     0.000000     0.000000     0.000000     0.000000

 Subroutine IBZKPT returns following result:

 Found      8 irreducible k-points:

 Following reciprocal coordinates:
            Coordinates               Weight
  0.000000  0.000000  0.125000      2.000000
  0.333333  0.000000  0.125000      8.000000
  0.333333  0.333333  0.125000      4.000000
 -0.333333  0.333333  0.125000      4.000000
  0.000000  0.000000  0.375000      2.000000
  0.333333  0.000000  0.375000      8.000000
  0.333333  0.333333  0.375000      4.000000
 -0.333333  0.333333  0.375000      4.000000

 Following cartesian coordinates:
            Coordinates               Weight
  0.000000  0.000000  0.019823      2.000000
  0.035341  0.000000  0.019823      8.000000
  0.035341  0.035341  0.019823      4.000000
 -0.035341  0.035341  0.019823      4.000000
  0.000000  0.000000  0.059469      2.000000
  0.035341  0.000000  0.059469      8.000000
  0.035341  0.035341  0.059469      4.000000
 -0.035341  0.035341  0.059469      4.000000

 I would recommend the setting:
   dimension x,y,z NGX =    51 NGY =   51 NGZ =   34
 SYSTEM =  SnO2
 POSCAR =  SnO2

 Startparameter for this run:
   NWRITE =      2    write-flag & timer
   PREC   = normal    normal or accurate (medium, high low for compatibility)
   ISTART =      0    job   : 0-new  1-cont  2-samecut
   ICHARG =      2    charge: 1-file 2-atom 10-const
   ISPIN  =      1    spin polarized calculation?
   LNONCOLLINEAR =      F non collinear calculations
   LSORBIT =      F    spin-orbit coupling
   INIWAV =      1    electr: 0-lowe 1-rand  2-diag
   LASPH  =      F    aspherical Exc in radial PAW
   METAGGA=      F    non-selfconsistent MetaGGA calc.

 Electronic Relaxation 1
   ENCUT  =  480.0 eV  35.28 Ry    5.94 a.u.  16.85 16.85 11.26*2*pi/ulx,y,z
   ENINI  =  480.0     initial cutoff
   ENAUG  =  605.4 eV  augmentation charge cutoff
   NELM   =     60;   NELMIN=  2; NELMDL= -5     # of ELM steps
   EDIFF  = 0.1E-03   stopping-criterion for ELM
   LREAL  =      F    real-space projection
   NLSPLINE    = F    spline interpolate recip. space projectors
   LCOMPAT=      F    compatible to vasp.4.4
   GGA_COMPAT  = T    GGA compatible to vasp.4.4-vasp.4.6
   LMAXPAW     = -100 max onsite density
   LMAXMIX     =    4 max onsite mixed and CHGCAR
   VOSKOWN=      0    Vosko Wilk Nusair interpolation
   ROPT   =    0.00000   0.00000
 Ionic relaxation
   EDIFFG = -.5E-01   stopping-criterion for IOM
   NSW    =    100    number of steps for IOM
   NBLOCK =      1;   KBLOCK =    100    inner block; outer block
   IBRION =      2    ionic relax: 0-MD 1-quasi-New 2-CG
   NFREE  =      1    steps in history (QN), initial steepest desc. (CG)
   ISIF   =      2    stress and relaxation
   IWAVPR =     11    prediction:  0-non 1-charg 2-wave 3-comb
   ISYM   =      2    0-nonsym 1-usesym 2-fastsym
   LCORR  =      T    Harris-Foulkes like correction to forces

   POTIM  = 0.5000    time-step for ionic-motion
   TEIN   =    0.0    initial temperature
   TEBEG  =    0.0;   TEEND  =   0.0 temperature during run
   SMASS  =  -3.00    Nose mass-parameter (am)
   estimated Nose-frequenzy (Omega)   =  0.10E-29 period in steps =****** mass=  -0.203E-26a.u.
   SCALEE = 1.0000    scale energy and forces
[...]
  (the norm of the test charge is              1.0000)
       1 -67.9493       2 -67.8241       3 -67.8577       4 -67.8314       5 -67.8229
       6 -67.9493       7 -67.8241       8 -67.8472       9 -67.8253      10 -67.8253
      11 -67.8241      12 -67.8567      13 -67.7586      14 -67.8577      15 -67.8577
      16 -67.7221      17 -67.8861      18 -67.9493      19 -67.8472      20 -67.8577
      21 -67.6363      22 -67.9493      23 -67.8241      24 -67.8229      25 -67.8435
      26 -67.8314      27 -67.8509      28 -67.8509      29 -67.8509      30 -67.8115
      31 -67.8509      32 -98.9785      33 -98.9829      34 -99.0466      35 -99.0349
      36 -98.9829      37 -99.0085      38 -99.0466      39 -99.0019      40 -99.0019
      41 -99.0085      42 -98.9777      43 -99.0019      44 -99.0019      45 -98.9777
      46 -98.9649      47 -99.2242

 E-fermi :   7.9324     XC(G=0): -11.2944     alpha+bet :-14.4463

[...]

 k-point     8 :      -0.3333    0.3333    0.3750
  band No.  band energies     occupation
      1     -16.6950      2.00000
      2     -16.6801      2.00000
      3     -16.6657      2.00000
      4     -16.6398      2.00000
      5     -16.6218      2.00000
      6     -16.6103      2.00000
      7     -16.5969      2.00000
      8     -16.5675      2.00000
      9     -16.5493      2.00000
     10     -16.5220      2.00000
     11     -16.4959      2.00000
     12     -16.4533      2.00000
     13     -16.4161      2.00000
     14     -16.4151      2.00000
     15     -16.3898      2.00000
     16     -16.3527      2.00000
     17     -16.3288      2.00000
     18     -16.3142      2.00000
     19     -16.2770      2.00000
     20     -16.2700      2.00000
     21     -16.2697      2.00000
     22     -16.2579      2.00000
     23     -16.2225      2.00000
     24     -16.1888      2.00000
     25     -16.1700      2.00000
     26     -16.1589      2.00000
     27     -16.1383      2.00000
     28     -16.1124      2.00000
     29     -16.1005      2.00000
     30     -16.0871      2.00000
     31     -16.0184      2.00000
     32     -15.9304      2.00000
     33     -15.7166      2.00000
     34     -15.7034      2.00000
     35     -15.6968      2.00000
     36     -15.6067      2.00000
     37     -15.6024      2.00000
     38     -15.5986      2.00000
     39     -15.5906      2.00000
     40     -15.5881      2.00000
     41     -15.5838      2.00000
     42     -15.5791      2.00000
     43     -15.5654      2.00000
     44     -15.5444      2.00000
     45     -15.5399      2.00000
     46     -15.5341      2.00000
     47     -15.5317      2.00000
     48     -15.5292      2.00000
     49     -15.5259      2.00000
     50     -15.5214      2.00000
     51     -15.5195      2.00000
     52     -15.5184      2.00000
     53     -15.5154      2.00000
     54     -15.5146      2.00000
     55     -15.5118      2.00000
     56     -15.5079      2.00000
     57     -15.5046      2.00000
     58     -15.5030      2.00000
     59     -15.5004      2.00000
     60     -15.4989      2.00000
[...]
    234      15.2093      0.00000
    235      15.3984      0.00000
    236      15.6024      0.00000
    237      15.6508      0.00000
    238      15.7143      0.00000
    239      15.7360      0.00000
    240      15.8405      0.00000
    241      15.9014      0.00000
    242      15.9351      0.00000
    243      16.0249      0.00000
    244      16.0509      0.00000
    245      16.3043      0.00000
    246      17.0096      0.00000
    247      17.3397      0.00000
    248      17.4366      0.00000

 soft charge-density along one line, spin component           1
         0         1         2         3         4         5         6         7         8         9
 total charge-density along one line

------------------------ aborting loop because EDIFF is reached ----------------------------------------

  FORCE on cell =-STRESS in cart. coord.  units (eV):
  Direction    XX          YY          ZZ          XY          YZ          ZX
  Alpha Z  1460.09212  1460.09212  1460.09212
  Ewald  -12750.22281-12750.22281 -7573.18744  -350.95914     0.00000     0.00000
  Hartree  2784.65800  2784.65800  5701.74826  -201.60106     0.00000     0.00000
  E(xc)   -2088.11022 -2088.11022 -2082.90563    -0.40422     0.00000     0.00000
  Local    1605.31486  1605.31486 -6340.78438   544.89830     0.00000     0.00000
  n-local   121.58227   121.43032   202.78305    -3.37582     0.03863     0.01725
  augment  3170.62261  3170.62261  3142.71865     0.56812     0.00000     0.00000
  Kinetic  5697.31600  5697.60406  5489.51578     7.70625    -0.17756    -0.07629
  Fock        0.00000     0.00000     0.00000     0.00000     0.00000     0.00000
  Total       1.32087     1.32087    -0.01960    -3.16792     0.00000     0.00000
  in kB       3.77243     3.77243    -0.05597    -9.04763     0.00000     0.00000

 VOLUME and BASIS-vectors are now :
  energy-cutoff  :      480.00
  volume of cell :      560.98
      direct lattice vectors                 reciprocal lattice vectors
     9.432027167  0.000000000  0.000000000     0.106021747  0.000000000  0.000000000
     0.000000000  9.432027167  0.000000000     0.000000000  0.106021747  0.000000000
     0.000000000  0.000000000  6.305806843     0.000000000  0.000000000  0.158583989

  length of vectors
     9.432027167  9.432027167  6.305806843     0.106021747  0.106021747  0.158583989

 FORCES acting on ions
    electron-ion (+dipol)            ewald-force                    non-local-force                 convergence-correction
   -.481E+02 -.603E+01 -.211E+02   0.511E+02 0.386E+01 0.209E+02   -.293E+01 0.221E+01 0.107E+00   -.303E-01 -.275E-01 -.935E-03
   0.476E+02 -.263E+02 -.112E+01   -.498E+02 0.287E+02 0.129E+01   0.221E+01 -.239E+01 -.160E+00   0.110E-01 0.285E-02 -.568E-02
   0.258E+02 -.330E+02 0.711E+00   -.282E+02 0.353E+02 -.106E+01   0.243E+01 -.236E+01 0.333E+00   -.133E-01 0.100E-01 0.115E-01
   0.407E+02 0.375E+02 -.632E-05   -.433E+02 -.400E+02 -.971E-16   0.265E+01 0.256E+01 0.000E+00   0.467E-02 -.493E-02 0.225E-11
   -.673E+02 -.166E+02 -.870E-05   0.703E+02 0.190E+02 0.180E-15   -.312E+01 -.236E+01 0.000E+00   0.188E-01 -.240E-01 -.493E-11
   -.603E+01 -.481E+02 0.211E+02   0.386E+01 0.511E+02 -.209E+02   0.221E+01 -.293E+01 -.107E+00   -.275E-01 -.303E-01 0.935E-03
   -.263E+02 0.476E+02 0.112E+01   0.287E+02 -.498E+02 -.129E+01   -.239E+01 0.221E+01 0.160E+00   0.285E-02 0.110E-01 0.568E-02
   0.410E+02 0.383E+02 0.662E-05   -.434E+02 -.410E+02 -.219E-13   0.242E+01 0.271E+01 0.000E+00   -.625E-03 -.495E-02 -.613E-11
   -.250E+02 -.544E+02 0.904E-05   0.274E+02 0.572E+02 0.140E-13   -.235E+01 -.280E+01 0.000E+00   -.370E-02 0.628E-02 0.904E-12
   -.544E+02 -.250E+02 0.904E-05   0.572E+02 0.274E+02 0.574E-13   -.280E+01 -.235E+01 0.000E+00   0.628E-02 -.370E-02 -.225E-11
   -.263E+02 0.476E+02 -.112E+01   0.287E+02 -.498E+02 0.129E+01   -.239E+01 0.221E+01 -.160E+00   0.285E-02 0.110E-01 -.568E-02
   0.387E+02 0.387E+02 -.842E-05   -.411E+02 -.411E+02 -.624E-13   0.236E+01 0.236E+01 0.000E+00   0.533E-02 0.533E-02 -.379E-12
   -.565E+02 -.565E+02 -.847E-05   0.592E+02 0.592E+02 0.487E-14   -.268E+01 -.268E+01 0.000E+00   0.425E-02 0.425E-02 0.106E-11
   0.258E+02 -.330E+02 -.711E+00   -.282E+02 0.353E+02 0.106E+01   0.243E+01 -.236E+01 -.333E+00   -.133E-01 0.100E-01 -.115E-01
   -.330E+02 0.258E+02 -.711E+00   0.353E+02 -.282E+02 0.106E+01   -.236E+01 0.243E+01 -.333E+00   0.100E-01 -.133E-01 -.115E-01
   0.427E+02 0.427E+02 0.362E-05   -.460E+02 -.460E+02 -.898E-14   0.330E+01 0.330E+01 0.000E+00   0.128E-01 0.128E-01 0.263E-11
   -.484E+02 -.484E+02 -.328E-05   0.504E+02 0.504E+02 0.177E-16   -.206E+01 -.206E+01 0.000E+00   -.885E-02 -.885E-02 -.737E-11
   -.603E+01 -.481E+02 -.211E+02   0.386E+01 0.511E+02 0.209E+02   0.221E+01 -.293E+01 0.107E+00   -.275E-01 -.303E-01 -.935E-03
   0.383E+02 0.410E+02 0.662E-05   -.410E+02 -.434E+02 0.130E-13   0.271E+01 0.242E+01 0.000E+00   -.495E-02 -.625E-03 -.423E-12
   -.330E+02 0.258E+02 0.711E+00   0.353E+02 -.282E+02 -.106E+01   -.236E+01 0.243E+01 0.333E+00   0.100E-01 -.133E-01 0.115E-01
   -.151E+02 -.151E+02 0.126E-04   0.168E+02 0.168E+02 -.171E-14   -.172E+01 -.172E+01 0.000E+00   -.297E-02 -.297E-02 0.169E-11
   -.481E+02 -.603E+01 0.211E+02   0.511E+02 0.386E+01 -.209E+02   -.293E+01 0.221E+01 -.107E+00   -.303E-01 -.275E-01 0.935E-03
   0.476E+02 -.263E+02 0.112E+01   -.498E+02 0.287E+02 -.129E+01   0.221E+01 -.239E+01 0.160E+00   0.110E-01 0.285E-02 0.568E-02
   -.166E+02 -.673E+02 -.870E-05   0.190E+02 0.703E+02 0.371E-15   -.236E+01 -.312E+01 0.000E+00   -.240E-01 0.188E-01 -.167E-11
   0.214E+02 0.214E+02 0.933E-05   -.225E+02 -.225E+02 -.601E-14   0.118E+01 0.118E+01 0.000E+00   -.723E-02 -.723E-02 0.104E-11
   0.375E+02 0.407E+02 -.632E-05   -.400E+02 -.433E+02 0.139E-14   0.256E+01 0.265E+01 0.000E+00   -.493E-02 0.467E-02 -.766E-12
   -.596E+02 0.858E+02 0.168E+02   0.629E+02 -.891E+02 -.167E+02   -.337E+01 0.321E+01 -.114E+00   0.896E-02 0.199E-01 0.309E-02
   0.858E+02 -.596E+02 -.168E+02   -.891E+02 0.629E+02 0.167E+02   0.321E+01 -.337E+01 0.114E+00   0.199E-01 0.896E-02 -.309E-02
   -.596E+02 0.858E+02 -.168E+02   0.629E+02 -.891E+02 0.167E+02   -.337E+01 0.321E+01 0.114E+00   0.896E-02 0.199E-01 -.309E-02
   0.910E+01 0.910E+01 -.913E-05   -.800E+01 -.800E+01 0.570E-13   -.113E+01 -.113E+01 0.000E+00   0.125E-01 0.125E-01 0.122E-11
   0.858E+02 -.596E+02 0.168E+02   -.891E+02 0.629E+02 -.167E+02   0.321E+01 -.337E+01 -.114E+00   0.199E-01 0.896E-02 0.309E-02
   0.351E+02 0.351E+02 -.365E-04   -.353E+02 -.353E+02 -.745E-13   0.181E+00 0.181E+00 0.000E+00   0.283E-01 0.283E-01 0.639E-11
   -.160E+02 -.160E+02 -.191E+01   0.158E+02 0.158E+02 0.188E+01   0.216E+00 0.216E+00 0.472E-01   0.500E-02 0.500E-02 -.347E-02
   0.112E+03 0.112E+03 0.166E+03   -.113E+03 -.113E+03 -.168E+03   0.113E+01 0.113E+01 0.170E+01   -.224E-01 -.224E-01 0.242E-01
   -.369E+02 -.369E+02 -.202E-05   0.375E+02 0.375E+02 -.269E-13   -.608E+00 -.608E+00 0.000E+00   -.213E-01 -.213E-01 -.334E-11
   -.160E+02 -.160E+02 0.191E+01   0.158E+02 0.158E+02 -.188E+01   0.216E+00 0.216E+00 -.472E-01   0.500E-02 0.500E-02 0.347E-02
   -.377E+02 0.373E+02 -.632E-05   0.377E+02 -.375E+02 -.290E-13   0.446E-01 0.223E+00 0.000E+00   -.577E-02 0.213E-01 -.469E-13
   0.112E+03 0.112E+03 -.166E+03   -.113E+03 -.113E+03 0.168E+03   0.113E+01 0.113E+01 -.170E+01   -.224E-01 -.224E-01 -.242E-01
   0.208E+02 -.251E+02 -.836E+01   -.204E+02 0.249E+02 0.838E+01   -.357E+00 0.203E+00 -.318E-01   -.214E-01 -.421E-02 0.518E-02
   -.251E+02 0.208E+02 -.836E+01   0.249E+02 -.204E+02 0.838E+01   0.203E+00 -.357E+00 -.318E-01   -.421E-02 -.214E-01 0.518E-02
   0.373E+02 -.377E+02 -.632E-05   -.375E+02 0.377E+02 -.619E-13   0.223E+00 0.446E-01 0.000E+00   0.213E-01 -.577E-02 0.870E-11
   -.418E+02 0.549E+02 0.142E-05   0.421E+02 -.552E+02 -.717E-13   -.225E+00 0.241E+00 0.000E+00   -.408E-02 0.235E-01 -.177E-11
   0.208E+02 -.251E+02 0.836E+01   -.204E+02 0.249E+02 -.838E+01   -.357E+00 0.203E+00 0.318E-01   -.214E-01 -.421E-02 -.518E-02
   -.251E+02 0.208E+02 0.836E+01   0.249E+02 -.204E+02 -.838E+01   0.203E+00 -.357E+00 0.318E-01   -.421E-02 -.214E-01 -.518E-02
   0.549E+02 -.418E+02 0.142E-05   -.552E+02 0.421E+02 -.450E-13   0.241E+00 -.225E+00 0.000E+00   0.235E-01 -.408E-02 -.602E-11
   0.328E+02 0.328E+02 0.256E-04   -.334E+02 -.334E+02 -.230E-13   0.605E+00 0.605E+00 0.000E+00   0.173E-01 0.173E-01 0.441E-11
   -.186E+03 -.186E+03 0.344E-04   0.186E+03 0.186E+03 -.297E-13   0.971E-01 0.971E-01 0.000E+00   -.283E-01 -.283E-01 0.237E-11
   0.196E+00 0.196E+00 -.105E-03   0.568E-13 -.853E-13 -.229E-12   -.837E-01 -.837E-01 -.694E-17   -.846E-01 -.846E-01 0.427E-10

 POSITION                                       TOTAL-FORCE (eV/Angst)
      0.93529      8.53003      4.73286         0.014257      0.017289     -0.005276
      3.80426      5.63484      4.72598        -0.007812     -0.012919      0.009160
      8.51236      5.63808      4.72675         0.006322      0.011874     -0.000707
      6.16210      1.44248      0.00000         0.002899     -0.014591      0.000000
      7.98968      3.27481      0.00000        -0.026284      0.020919      0.000000
      8.53003      0.93529      1.57294         0.017289      0.014257      0.005276
      5.63484      3.80426      1.57983        -0.012919     -0.007812     -0.009160
      6.16064      1.43818      3.15290         0.001161     -0.007580      0.000000
      3.27207      7.98875      3.15290         0.002882     -0.004591      0.000000
      7.98875      3.27207      3.15290        -0.004591      0.002882      0.000000
      5.63484      3.80426      4.72598        -0.012919     -0.007812      0.009160
      6.16559      6.16559      0.00000        -0.022623     -0.022623      0.000000
      8.00106      8.00106      0.00000        -0.011332     -0.011332      0.000000
      8.51236      5.63808      1.57905         0.006322      0.011874      0.000707
      5.63808      8.51236      1.57905         0.011874      0.006322      0.000707
      6.15638      6.15638      3.15290         0.013061      0.013061      0.000000
      7.99702      7.99702      3.15290        -0.001212     -0.001212      0.000000
      8.53003      0.93529      4.73286         0.017289      0.014257     -0.005276
      1.43818      6.16064      3.15290        -0.007580      0.001161      0.000000
      5.63808      8.51236      4.72675         0.011874      0.006322     -0.000707
      3.24688      3.24688      3.15290         0.003439      0.003439      0.000000
      0.93529      8.53003      1.57294         0.014257      0.017289      0.005276
      3.80426      5.63484      1.57983        -0.007812     -0.012919     -0.009160
      3.27481      7.98968      0.00000         0.020919     -0.026284      0.000000
      1.42567      1.42567      3.15290         0.010664      0.010664      0.000000
      1.44248      6.16210      0.00000        -0.014591      0.002899      0.000000
      0.89477      3.79939      1.56511        -0.004354     -0.019466     -0.000689
      3.79939      0.89477      4.74070        -0.019466     -0.004354      0.000689
      0.89477      3.79939      4.74070        -0.004354     -0.019466      0.000689
      3.28708      3.28708      0.00000        -0.010334     -0.010334      0.000000
      3.79939      0.89477      1.56511        -0.019466     -0.004354     -0.000689
      4.69771      4.69771      3.15290        -0.000017     -0.000017      0.000000
      7.07633      7.07633      4.72738         0.006117      0.006117      0.013491
      2.32870      2.32870      1.54481         0.018440      0.018440     -0.021604
     -0.00083     -0.00083      3.15290        -0.003656     -0.003656      0.000000
      7.07633      7.07633      1.57842         0.006117      0.006117     -0.013491
     -0.00496      4.71518      3.15290         0.000609     -0.001540      0.000000
      2.32870      2.32870      4.76100         0.018440      0.018440      0.021604
      2.36512      7.06928      4.72977         0.014088     -0.003663     -0.006935
      7.06928      2.36512      4.72977        -0.003663      0.014088     -0.006935
      4.71518     -0.00496      3.15290        -0.001540      0.000609      0.000000
     -0.01207      4.73289      0.00000         0.005224     -0.016504      0.000000
      2.36512      7.06928      1.57604         0.014088     -0.003663      0.006935
      7.06928      2.36512      1.57604        -0.003663      0.014088      0.006935
      4.73289     -0.01207      0.00000        -0.016504      0.005224      0.000000
      4.72790      4.72790      0.00000        -0.019220     -0.019220      0.000000
      0.02110      0.02110      0.00000        -0.001719     -0.001719      0.000000
    total drift:                                0.028180      0.028180     -0.000105

  FREE ENERGIE OF THE ION-ELECTRON SYSTEM (eV)
  free  energy   TOTEN  =      -305.40900571 eV

  energy  without entropy=     -305.40900571  energy(sigma->0) =     -305.40900571

 d Force = 0.1265734E-02[ 0.483E-03, 0.205E-02]  d Energy = 0.1339125E-02-0.734E-04
 d Force = 0.1420393E+01[ 0.140E+01, 0.144E+01]  d Ewald  = 0.1420383E+01 0.983E-05

 Conjugate gradient step on ions:
 trial-energy change:   -0.001339  1 .order   -0.001266   -0.002049   -0.000483
  (g-gl).g = 0.165E-02      g.g   = 0.196E-02  gl.gl    = 0.408E-02
 g(Force)  = 0.196E-02   g(Stress)= 0.000E+00 ortho     = 0.393E-04
 gamma     =   0.40388
 trial     =   1.03637
 opt step  =   1.35585  (harmonic =   1.35585) maximal distance =0.00368263
 next E    =  -305.409007   (d E  =  -0.00134)

 reached required accuracy - stopping structural energy minimisation
 writing wavefunctions